*SENSE:Minimize
NAME          MODEL
ROWS
 N  OBJ
 E  C0000000
 E  C0000001
 E  C0000002
 E  C0000003
 E  C0000004
 E  C0000005
 E  C0000006
 E  C0000007
 E  C0000008
 E  C0000009
 E  C0000010
 E  C0000011
 E  C0000012
 E  C0000013
 E  C0000014
 E  C0000015
 E  C0000016
 E  C0000017
 E  C0000018
 E  C0000019
 E  C0000020
 E  C0000021
 E  C0000022
 E  C0000023
 E  C0000024
 E  C0000025
 E  C0000026
 E  C0000027
 E  C0000028
 E  C0000029
 E  C0000030
 E  C0000031
 E  C0000032
 E  C0000033
 E  C0000034
 E  C0000035
 E  C0000036
 E  C0000037
 E  C0000038
 E  C0000039
 E  C0000040
 E  C0000041
 E  C0000042
 E  C0000043
 E  C0000044
 E  C0000045
 E  C0000046
 E  C0000047
 E  C0000048
 E  C0000049
 E  C0000050
 E  C0000051
 E  C0000052
 E  C0000053
 E  C0000054
 E  C0000055
 E  C0000056
 E  C0000057
 E  C0000058
 E  C0000059
 E  C0000060
 E  C0000061
 E  C0000062
 E  C0000063
 E  C0000064
 E  C0000065
 E  C0000066
 E  C0000067
 E  C0000068
 E  C0000069
 E  C0000070
 E  C0000071
 E  C0000072
 E  C0000073
 E  C0000074
 E  C0000075
 E  C0000076
 E  C0000077
 E  C0000078
 E  C0000079
 E  C0000080
 E  C0000081
 E  C0000082
 E  C0000083
 E  C0000084
 E  C0000085
 E  C0000086
 E  C0000087
 E  C0000088
 E  C0000089
 E  C0000090
 E  C0000091
 E  C0000092
 E  C0000093
 E  C0000094
 E  C0000095
 E  C0000096
 E  C0000097
 E  C0000098
 E  C0000099
 E  C0000100
 E  C0000101
 E  C0000102
 E  C0000103
 E  C0000104
 E  C0000105
 E  C0000106
 E  C0000107
 E  C0000108
 E  C0000109
 E  C0000110
 E  C0000111
 E  C0000112
 E  C0000113
 E  C0000114
 E  C0000115
 E  C0000116
 E  C0000117
 E  C0000118
 E  C0000119
 E  C0000120
 E  C0000121
 E  C0000122
 E  C0000123
 E  C0000124
 E  C0000125
 E  C0000126
 E  C0000127
 E  C0000128
 E  C0000129
 E  C0000130
 E  C0000131
 E  C0000132
 E  C0000133
 E  C0000134
 E  C0000135
 E  C0000136
 E  C0000137
 E  C0000138
 E  C0000139
 E  C0000140
 E  C0000141
 E  C0000142
 E  C0000143
 E  C0000144
 E  C0000145
 E  C0000146
 E  C0000147
 E  C0000148
 E  C0000149
 E  C0000150
 E  C0000151
 E  C0000152
 E  C0000153
 E  C0000154
 E  C0000155
 E  C0000156
 E  C0000157
 E  C0000158
 E  C0000159
 E  C0000160
 E  C0000161
 E  C0000162
 E  C0000163
 E  C0000164
 E  C0000165
 E  C0000166
 E  C0000167
 E  C0000168
 E  C0000169
 E  C0000170
 E  C0000171
 E  C0000172
 E  C0000173
 E  C0000174
 E  C0000175
 E  C0000176
 E  C0000177
 E  C0000178
 E  C0000179
 E  C0000180
 E  C0000181
 E  C0000182
 E  C0000183
 E  C0000184
 E  C0000185
 E  C0000186
 E  C0000187
 E  C0000188
 E  C0000189
 E  C0000190
 E  C0000191
 E  C0000192
 E  C0000193
 E  C0000194
 E  C0000195
 E  C0000196
 E  C0000197
 E  C0000198
 E  C0000199
 E  C0000200
 E  C0000201
 E  C0000202
 E  C0000203
 E  C0000204
 E  C0000205
 E  C0000206
 E  C0000207
 E  C0000208
 E  C0000209
 E  C0000210
 E  C0000211
 E  C0000212
 E  C0000213
 E  C0000214
 E  C0000215
 E  C0000216
 E  C0000217
 E  C0000218
 E  C0000219
 E  C0000220
 E  C0000221
 E  C0000222
 E  C0000223
 E  C0000224
 E  C0000225
 E  C0000226
 E  C0000227
 E  C0000228
 E  C0000229
 E  C0000230
 E  C0000231
 E  C0000232
 E  C0000233
 E  C0000234
 E  C0000235
 E  C0000236
 E  C0000237
 E  C0000238
 E  C0000239
 E  C0000240
 E  C0000241
 E  C0000242
 E  C0000243
 E  C0000244
 E  C0000245
 E  C0000246
 E  C0000247
 E  C0000248
 E  C0000249
 E  C0000250
 E  C0000251
 E  C0000252
 E  C0000253
 E  C0000254
 E  C0000255
 E  C0000256
 E  C0000257
 E  C0000258
 E  C0000259
 E  C0000260
 E  C0000261
 E  C0000262
 E  C0000263
 E  C0000264
 E  C0000265
 E  C0000266
 E  C0000267
 E  C0000268
 E  C0000269
 E  C0000270
 E  C0000271
 E  C0000272
 E  C0000273
 E  C0000274
 E  C0000275
 E  C0000276
 E  C0000277
 E  C0000278
 E  C0000279
 E  C0000280
 E  C0000281
 E  C0000282
 E  C0000283
 E  C0000284
 E  C0000285
 E  C0000286
 E  C0000287
 E  C0000288
 E  C0000289
 E  C0000290
 E  C0000291
 E  C0000292
 E  C0000293
 E  C0000294
 E  C0000295
 E  C0000296
 E  C0000297
 E  C0000298
 E  C0000299
 E  C0000300
 E  C0000301
 E  C0000302
 E  C0000303
 E  C0000304
 E  C0000305
 E  C0000306
 E  C0000307
 E  C0000308
 E  C0000309
 E  C0000310
 E  C0000311
 E  C0000312
 E  C0000313
 E  C0000314
 E  C0000315
 E  C0000316
 E  C0000317
 E  C0000318
 E  C0000319
 E  C0000320
 E  C0000321
 E  C0000322
 E  C0000323
 E  C0000324
 E  C0000325
 E  C0000326
 E  C0000327
 E  C0000328
 E  C0000329
 E  C0000330
 E  C0000331
 E  C0000332
 E  C0000333
 E  C0000334
 E  C0000335
 E  C0000336
 E  C0000337
 E  C0000338
 E  C0000339
 E  C0000340
 E  C0000341
 E  C0000342
 E  C0000343
 E  C0000344
 E  C0000345
 E  C0000346
 E  C0000347
 E  C0000348
 E  C0000349
 E  C0000350
 E  C0000351
 E  C0000352
 E  C0000353
 E  C0000354
 E  C0000355
 E  C0000356
 E  C0000357
 E  C0000358
 E  C0000359
 E  C0000360
 E  C0000361
 E  C0000362
 E  C0000363
 E  C0000364
 E  C0000365
 E  C0000366
 E  C0000367
 E  C0000368
 E  C0000369
 E  C0000370
 E  C0000371
 E  C0000372
 E  C0000373
 E  C0000374
 E  C0000375
 E  C0000376
 E  C0000377
 E  C0000378
 E  C0000379
 E  C0000380
 E  C0000381
 E  C0000382
 E  C0000383
 E  C0000384
 E  C0000385
 E  C0000386
 E  C0000387
 E  C0000388
 E  C0000389
 E  C0000390
 E  C0000391
 E  C0000392
 E  C0000393
 E  C0000394
 E  C0000395
 E  C0000396
 E  C0000397
 E  C0000398
 E  C0000399
 E  C0000400
 E  C0000401
 E  C0000402
 E  C0000403
 E  C0000404
 E  C0000405
 E  C0000406
 E  C0000407
 E  C0000408
 E  C0000409
 E  C0000410
 E  C0000411
 E  C0000412
 E  C0000413
 E  C0000414
 E  C0000415
 E  C0000416
 E  C0000417
 E  C0000418
 E  C0000419
 E  C0000420
 E  C0000421
 E  C0000422
 E  C0000423
 E  C0000424
 E  C0000425
 E  C0000426
 E  C0000427
 E  C0000428
 E  C0000429
 E  C0000430
 E  C0000431
 E  C0000432
 E  C0000433
 E  C0000434
 E  C0000435
 G  C0000436
 G  C0000437
 G  C0000438
 L  C0000439
 G  C0000440
 G  C0000441
 G  C0000442
 L  C0000443
 G  C0000444
 G  C0000445
 G  C0000446
 L  C0000447
 G  C0000448
 G  C0000449
 G  C0000450
 L  C0000451
 G  C0000452
 G  C0000453
 G  C0000454
 L  C0000455
 G  C0000456
 G  C0000457
 G  C0000458
 L  C0000459
 G  C0000460
 G  C0000461
 G  C0000462
 L  C0000463
 G  C0000464
 G  C0000465
 G  C0000466
 L  C0000467
 G  C0000468
 G  C0000469
 G  C0000470
 L  C0000471
 G  C0000472
 G  C0000473
 G  C0000474
 L  C0000475
 G  C0000476
 G  C0000477
 G  C0000478
 L  C0000479
 G  C0000480
 G  C0000481
 G  C0000482
 L  C0000483
 G  C0000484
 G  C0000485
 G  C0000486
 L  C0000487
 G  C0000488
 G  C0000489
 G  C0000490
 L  C0000491
 G  C0000492
 G  C0000493
 G  C0000494
 L  C0000495
 G  C0000496
 G  C0000497
 G  C0000498
 L  C0000499
 G  C0000500
 G  C0000501
 G  C0000502
 L  C0000503
 G  C0000504
 G  C0000505
 G  C0000506
 L  C0000507
 G  C0000508
 G  C0000509
 G  C0000510
 L  C0000511
 G  C0000512
 G  C0000513
 G  C0000514
 L  C0000515
 G  C0000516
 G  C0000517
 G  C0000518
 L  C0000519
 G  C0000520
 G  C0000521
 G  C0000522
 L  C0000523
 G  C0000524
 G  C0000525
 G  C0000526
 L  C0000527
 G  C0000528
 G  C0000529
 G  C0000530
 L  C0000531
 G  C0000532
 G  C0000533
 G  C0000534
 L  C0000535
 G  C0000536
 G  C0000537
 G  C0000538
 L  C0000539
 G  C0000540
 G  C0000541
 G  C0000542
 L  C0000543
 G  C0000544
 G  C0000545
 G  C0000546
 L  C0000547
 G  C0000548
 G  C0000549
 G  C0000550
 L  C0000551
 G  C0000552
 G  C0000553
 G  C0000554
 L  C0000555
 G  C0000556
 G  C0000557
 G  C0000558
 L  C0000559
 G  C0000560
 G  C0000561
 G  C0000562
 L  C0000563
 G  C0000564
 G  C0000565
 G  C0000566
 L  C0000567
 G  C0000568
 G  C0000569
 G  C0000570
 L  C0000571
 G  C0000572
 G  C0000573
 G  C0000574
 L  C0000575
 G  C0000576
 G  C0000577
 G  C0000578
 L  C0000579
 G  C0000580
 G  C0000581
 G  C0000582
 L  C0000583
 G  C0000584
 G  C0000585
 G  C0000586
 L  C0000587
 G  C0000588
 G  C0000589
 G  C0000590
 L  C0000591
 G  C0000592
 G  C0000593
 G  C0000594
 L  C0000595
 G  C0000596
 G  C0000597
 G  C0000598
 L  C0000599
 G  C0000600
 G  C0000601
 G  C0000602
 L  C0000603
 G  C0000604
 G  C0000605
 G  C0000606
 L  C0000607
 G  C0000608
 G  C0000609
 G  C0000610
 L  C0000611
 G  C0000612
 G  C0000613
 G  C0000614
 L  C0000615
 G  C0000616
 G  C0000617
 G  C0000618
 L  C0000619
 G  C0000620
 G  C0000621
 G  C0000622
 L  C0000623
 G  C0000624
 G  C0000625
 G  C0000626
 L  C0000627
 G  C0000628
 G  C0000629
 G  C0000630
 L  C0000631
 G  C0000632
 G  C0000633
 G  C0000634
 L  C0000635
 G  C0000636
 G  C0000637
 G  C0000638
 L  C0000639
 G  C0000640
 G  C0000641
 G  C0000642
 L  C0000643
 G  C0000644
 G  C0000645
 G  C0000646
 L  C0000647
 G  C0000648
 G  C0000649
 G  C0000650
 L  C0000651
 G  C0000652
 G  C0000653
 G  C0000654
 L  C0000655
 G  C0000656
 G  C0000657
 G  C0000658
 L  C0000659
 G  C0000660
 G  C0000661
 G  C0000662
 L  C0000663
 G  C0000664
 G  C0000665
 G  C0000666
 L  C0000667
 G  C0000668
 G  C0000669
 G  C0000670
 L  C0000671
 G  C0000672
 G  C0000673
 G  C0000674
 L  C0000675
 L  C0000676
 L  C0000677
 G  C0000678
 L  C0000679
 L  C0000680
 G  C0000681
 L  C0000682
 L  C0000683
 G  C0000684
 L  C0000685
 L  C0000686
 G  C0000687
 L  C0000688
 L  C0000689
 G  C0000690
 L  C0000691
 L  C0000692
 G  C0000693
 L  C0000694
 L  C0000695
 G  C0000696
 L  C0000697
 L  C0000698
 G  C0000699
 L  C0000700
 L  C0000701
 G  C0000702
 L  C0000703
 L  C0000704
 G  C0000705
 L  C0000706
 L  C0000707
 G  C0000708
 L  C0000709
 L  C0000710
 G  C0000711
 L  C0000712
 L  C0000713
 G  C0000714
 L  C0000715
 L  C0000716
 G  C0000717
 L  C0000718
 L  C0000719
 G  C0000720
 L  C0000721
 L  C0000722
 G  C0000723
 L  C0000724
 L  C0000725
 G  C0000726
 L  C0000727
 L  C0000728
 G  C0000729
 L  C0000730
 L  C0000731
 G  C0000732
 L  C0000733
 L  C0000734
 G  C0000735
 L  C0000736
 L  C0000737
 G  C0000738
 L  C0000739
 L  C0000740
 G  C0000741
 L  C0000742
 L  C0000743
 G  C0000744
 L  C0000745
 L  C0000746
 G  C0000747
 L  C0000748
 L  C0000749
 G  C0000750
 L  C0000751
 L  C0000752
 G  C0000753
 L  C0000754
 L  C0000755
 G  C0000756
 L  C0000757
 L  C0000758
 G  C0000759
 L  C0000760
 L  C0000761
 G  C0000762
 L  C0000763
 L  C0000764
 G  C0000765
 L  C0000766
 L  C0000767
 G  C0000768
 L  C0000769
 L  C0000770
 G  C0000771
 L  C0000772
 L  C0000773
 G  C0000774
 L  C0000775
 L  C0000776
 G  C0000777
 L  C0000778
 L  C0000779
 G  C0000780
 L  C0000781
 L  C0000782
 G  C0000783
 L  C0000784
 L  C0000785
 G  C0000786
 L  C0000787
 L  C0000788
 G  C0000789
 L  C0000790
 L  C0000791
 G  C0000792
 L  C0000793
 L  C0000794
 G  C0000795
 L  C0000796
 L  C0000797
 G  C0000798
 L  C0000799
 L  C0000800
 G  C0000801
 L  C0000802
 L  C0000803
 G  C0000804
 L  C0000805
 L  C0000806
 G  C0000807
 L  C0000808
 L  C0000809
 G  C0000810
 L  C0000811
 L  C0000812
 G  C0000813
 L  C0000814
 L  C0000815
 G  C0000816
 L  C0000817
 L  C0000818
 G  C0000819
 L  C0000820
 L  C0000821
 G  C0000822
 L  C0000823
 L  C0000824
 G  C0000825
 L  C0000826
 L  C0000827
 G  C0000828
 L  C0000829
 L  C0000830
 G  C0000831
 L  C0000832
 L  C0000833
 G  C0000834
 L  C0000835
 L  C0000836
 G  C0000837
 L  C0000838
 L  C0000839
 G  C0000840
 L  C0000841
 L  C0000842
 G  C0000843
 L  C0000844
 L  C0000845
 G  C0000846
 L  C0000847
 L  C0000848
 G  C0000849
 L  C0000850
 L  C0000851
 G  C0000852
 L  C0000853
 L  C0000854
 G  C0000855
 L  C0000856
 L  C0000857
 L  C0000858
 G  C0000859
 L  C0000860
 L  C0000861
 L  C0000862
 G  C0000863
 L  C0000864
 L  C0000865
 L  C0000866
 G  C0000867
 L  C0000868
 L  C0000869
 L  C0000870
 G  C0000871
 L  C0000872
 L  C0000873
 L  C0000874
 G  C0000875
 L  C0000876
 L  C0000877
 L  C0000878
 G  C0000879
 L  C0000880
 L  C0000881
 L  C0000882
 G  C0000883
 E  C0000884
 E  C0000885
 E  C0000886
 E  C0000887
 E  C0000888
 E  C0000889
 E  C0000890
 E  C0000891
 E  C0000892
 E  C0000893
 E  C0000894
 E  C0000895
 E  C0000896
 E  C0000897
 E  C0000898
 L  C0000899
 L  C0000900
 L  C0000901
 G  C0000902
 L  C0000903
 L  C0000904
 L  C0000905
 G  C0000906
 L  C0000907
 L  C0000908
 L  C0000909
 G  C0000910
 L  C0000911
 L  C0000912
 L  C0000913
 G  C0000914
 L  C0000915
 L  C0000916
 L  C0000917
 G  C0000918
 L  C0000919
 L  C0000920
 L  C0000921
 G  C0000922
 L  C0000923
 L  C0000924
 L  C0000925
 G  C0000926
 E  C0000927
 E  C0000928
 E  C0000929
 E  C0000930
 E  C0000931
 E  C0000932
 E  C0000933
 E  C0000934
 E  C0000935
 E  C0000936
 E  C0000937
 E  C0000938
 E  C0000939
 E  C0000940
 E  C0000941
 L  C0000942
 L  C0000943
 L  C0000944
 G  C0000945
 L  C0000946
 L  C0000947
 L  C0000948
 G  C0000949
 L  C0000950
 L  C0000951
 L  C0000952
 G  C0000953
 L  C0000954
 L  C0000955
 L  C0000956
 G  C0000957
 L  C0000958
 L  C0000959
 L  C0000960
 G  C0000961
 L  C0000962
 L  C0000963
 L  C0000964
 G  C0000965
 L  C0000966
 L  C0000967
 L  C0000968
 G  C0000969
 E  C0000970
 E  C0000971
 E  C0000972
 E  C0000973
 E  C0000974
 E  C0000975
 E  C0000976
 E  C0000977
 E  C0000978
 E  C0000979
 E  C0000980
 E  C0000981
 E  C0000982
 E  C0000983
 E  C0000984
 L  C0000985
 L  C0000986
 L  C0000987
 G  C0000988
 L  C0000989
 L  C0000990
 L  C0000991
 G  C0000992
 L  C0000993
 L  C0000994
 L  C0000995
 G  C0000996
 L  C0000997
 L  C0000998
 L  C0000999
 G  C0001000
 L  C0001001
 L  C0001002
 L  C0001003
 G  C0001004
 L  C0001005
 L  C0001006
 L  C0001007
 G  C0001008
 L  C0001009
 L  C0001010
 L  C0001011
 G  C0001012
 E  C0001013
 E  C0001014
 E  C0001015
 E  C0001016
 E  C0001017
 E  C0001018
 E  C0001019
 E  C0001020
 E  C0001021
 E  C0001022
 E  C0001023
 E  C0001024
 E  C0001025
 E  C0001026
 E  C0001027
 L  C0001028
 L  C0001029
 L  C0001030
 G  C0001031
 L  C0001032
 L  C0001033
 L  C0001034
 G  C0001035
 L  C0001036
 L  C0001037
 L  C0001038
 G  C0001039
 L  C0001040
 L  C0001041
 L  C0001042
 G  C0001043
 L  C0001044
 L  C0001045
 L  C0001046
 G  C0001047
 L  C0001048
 L  C0001049
 L  C0001050
 G  C0001051
 L  C0001052
 L  C0001053
 L  C0001054
 G  C0001055
 E  C0001056
 E  C0001057
 E  C0001058
 E  C0001059
 E  C0001060
 E  C0001061
 E  C0001062
 E  C0001063
 E  C0001064
 E  C0001065
 E  C0001066
 E  C0001067
 E  C0001068
 E  C0001069
 E  C0001070
 L  C0001071
 L  C0001072
 L  C0001073
 G  C0001074
 L  C0001075
 L  C0001076
 L  C0001077
 G  C0001078
 L  C0001079
 L  C0001080
 L  C0001081
 G  C0001082
 L  C0001083
 L  C0001084
 L  C0001085
 G  C0001086
 L  C0001087
 L  C0001088
 L  C0001089
 G  C0001090
 L  C0001091
 L  C0001092
 L  C0001093
 G  C0001094
 L  C0001095
 L  C0001096
 L  C0001097
 G  C0001098
 E  C0001099
 E  C0001100
 E  C0001101
 E  C0001102
 E  C0001103
 E  C0001104
 E  C0001105
 E  C0001106
 E  C0001107
 E  C0001108
 E  C0001109
 E  C0001110
 E  C0001111
 E  C0001112
 E  C0001113
 L  C0001114
 L  C0001115
 L  C0001116
 G  C0001117
 L  C0001118
 L  C0001119
 L  C0001120
 G  C0001121
 L  C0001122
 L  C0001123
 L  C0001124
 G  C0001125
 L  C0001126
 L  C0001127
 L  C0001128
 G  C0001129
 L  C0001130
 L  C0001131
 L  C0001132
 G  C0001133
 L  C0001134
 L  C0001135
 L  C0001136
 G  C0001137
 L  C0001138
 L  C0001139
 L  C0001140
 G  C0001141
 E  C0001142
 E  C0001143
 E  C0001144
 E  C0001145
 E  C0001146
 E  C0001147
 E  C0001148
 E  C0001149
 E  C0001150
 E  C0001151
 E  C0001152
 E  C0001153
 E  C0001154
 E  C0001155
 E  C0001156
 L  C0001157
 L  C0001158
 L  C0001159
 G  C0001160
 L  C0001161
 L  C0001162
 L  C0001163
 G  C0001164
 L  C0001165
 L  C0001166
 L  C0001167
 G  C0001168
 L  C0001169
 L  C0001170
 L  C0001171
 G  C0001172
 L  C0001173
 L  C0001174
 L  C0001175
 G  C0001176
 L  C0001177
 L  C0001178
 L  C0001179
 G  C0001180
 L  C0001181
 L  C0001182
 L  C0001183
 G  C0001184
 E  C0001185
 E  C0001186
 E  C0001187
 E  C0001188
 E  C0001189
 E  C0001190
 E  C0001191
 E  C0001192
 E  C0001193
 E  C0001194
 E  C0001195
 E  C0001196
 E  C0001197
 E  C0001198
 E  C0001199
 L  C0001200
 L  C0001201
 L  C0001202
 G  C0001203
 L  C0001204
 L  C0001205
 L  C0001206
 G  C0001207
 L  C0001208
 L  C0001209
 L  C0001210
 G  C0001211
 L  C0001212
 L  C0001213
 L  C0001214
 G  C0001215
 L  C0001216
 L  C0001217
 L  C0001218
 G  C0001219
 L  C0001220
 L  C0001221
 L  C0001222
 G  C0001223
 L  C0001224
 L  C0001225
 L  C0001226
 G  C0001227
 E  C0001228
 E  C0001229
 E  C0001230
 E  C0001231
 E  C0001232
 E  C0001233
 E  C0001234
 E  C0001235
 E  C0001236
 E  C0001237
 E  C0001238
 E  C0001239
 E  C0001240
 E  C0001241
 E  C0001242
 L  C0001243
 L  C0001244
 L  C0001245
 G  C0001246
 L  C0001247
 L  C0001248
 L  C0001249
 G  C0001250
 L  C0001251
 L  C0001252
 L  C0001253
 G  C0001254
 L  C0001255
 L  C0001256
 L  C0001257
 G  C0001258
 L  C0001259
 L  C0001260
 L  C0001261
 G  C0001262
 L  C0001263
 L  C0001264
 L  C0001265
 G  C0001266
 L  C0001267
 L  C0001268
 L  C0001269
 G  C0001270
 E  C0001271
 E  C0001272
 E  C0001273
 E  C0001274
 E  C0001275
 E  C0001276
 E  C0001277
 E  C0001278
 E  C0001279
 E  C0001280
 E  C0001281
 E  C0001282
 E  C0001283
 E  C0001284
 E  C0001285
 L  C0001286
 L  C0001287
 L  C0001288
 G  C0001289
 L  C0001290
 L  C0001291
 L  C0001292
 G  C0001293
 L  C0001294
 L  C0001295
 L  C0001296
 G  C0001297
 L  C0001298
 L  C0001299
 L  C0001300
 G  C0001301
 L  C0001302
 L  C0001303
 L  C0001304
 G  C0001305
 L  C0001306
 L  C0001307
 L  C0001308
 G  C0001309
 L  C0001310
 L  C0001311
 L  C0001312
 G  C0001313
 E  C0001314
 E  C0001315
 E  C0001316
 E  C0001317
 E  C0001318
 E  C0001319
 E  C0001320
 E  C0001321
 E  C0001322
 E  C0001323
 E  C0001324
 E  C0001325
 E  C0001326
 E  C0001327
 E  C0001328
 L  C0001329
 L  C0001330
 L  C0001331
 G  C0001332
 L  C0001333
 L  C0001334
 L  C0001335
 G  C0001336
 L  C0001337
 L  C0001338
 L  C0001339
 G  C0001340
 L  C0001341
 L  C0001342
 L  C0001343
 G  C0001344
 L  C0001345
 L  C0001346
 L  C0001347
 G  C0001348
 L  C0001349
 L  C0001350
 L  C0001351
 G  C0001352
 L  C0001353
 L  C0001354
 L  C0001355
 G  C0001356
 E  C0001357
 E  C0001358
 E  C0001359
 E  C0001360
 E  C0001361
 E  C0001362
 E  C0001363
 E  C0001364
 E  C0001365
 E  C0001366
 E  C0001367
 E  C0001368
 E  C0001369
 E  C0001370
 E  C0001371
 L  C0001372
 L  C0001373
 L  C0001374
 G  C0001375
 L  C0001376
 L  C0001377
 L  C0001378
 G  C0001379
 L  C0001380
 L  C0001381
 L  C0001382
 G  C0001383
 L  C0001384
 L  C0001385
 L  C0001386
 G  C0001387
 L  C0001388
 L  C0001389
 L  C0001390
 G  C0001391
 L  C0001392
 L  C0001393
 L  C0001394
 G  C0001395
 L  C0001396
 L  C0001397
 L  C0001398
 G  C0001399
 E  C0001400
 E  C0001401
 E  C0001402
 E  C0001403
 E  C0001404
 E  C0001405
 E  C0001406
 E  C0001407
 E  C0001408
 E  C0001409
 E  C0001410
 E  C0001411
 E  C0001412
 E  C0001413
 E  C0001414
 L  C0001415
 L  C0001416
 L  C0001417
 G  C0001418
 L  C0001419
 L  C0001420
 L  C0001421
 G  C0001422
 L  C0001423
 L  C0001424
 L  C0001425
 G  C0001426
 L  C0001427
 L  C0001428
 L  C0001429
 G  C0001430
 L  C0001431
 L  C0001432
 L  C0001433
 G  C0001434
 L  C0001435
 L  C0001436
 L  C0001437
 G  C0001438
 L  C0001439
 L  C0001440
 L  C0001441
 G  C0001442
 E  C0001443
 E  C0001444
 E  C0001445
 E  C0001446
 E  C0001447
 E  C0001448
 E  C0001449
 E  C0001450
 E  C0001451
 E  C0001452
 E  C0001453
 E  C0001454
 E  C0001455
 E  C0001456
 E  C0001457
 L  C0001458
 L  C0001459
 L  C0001460
 G  C0001461
 L  C0001462
 L  C0001463
 L  C0001464
 G  C0001465
 L  C0001466
 L  C0001467
 L  C0001468
 G  C0001469
 L  C0001470
 L  C0001471
 L  C0001472
 G  C0001473
 L  C0001474
 L  C0001475
 L  C0001476
 G  C0001477
 L  C0001478
 L  C0001479
 L  C0001480
 G  C0001481
 L  C0001482
 L  C0001483
 L  C0001484
 G  C0001485
 E  C0001486
 E  C0001487
 E  C0001488
 E  C0001489
 E  C0001490
 E  C0001491
 E  C0001492
 E  C0001493
 E  C0001494
 E  C0001495
 E  C0001496
 E  C0001497
 E  C0001498
 E  C0001499
 E  C0001500
 L  C0001501
 L  C0001502
 L  C0001503
 G  C0001504
 L  C0001505
 L  C0001506
 L  C0001507
 G  C0001508
 L  C0001509
 L  C0001510
 L  C0001511
 G  C0001512
 L  C0001513
 L  C0001514
 L  C0001515
 G  C0001516
 L  C0001517
 L  C0001518
 L  C0001519
 G  C0001520
 L  C0001521
 L  C0001522
 L  C0001523
 G  C0001524
 L  C0001525
 L  C0001526
 L  C0001527
 G  C0001528
 E  C0001529
 E  C0001530
 E  C0001531
 E  C0001532
 E  C0001533
 E  C0001534
 E  C0001535
 E  C0001536
 E  C0001537
 E  C0001538
 E  C0001539
 E  C0001540
 E  C0001541
 E  C0001542
 E  C0001543
 L  C0001544
 L  C0001545
 L  C0001546
 G  C0001547
 L  C0001548
 L  C0001549
 L  C0001550
 G  C0001551
 L  C0001552
 L  C0001553
 L  C0001554
 G  C0001555
 L  C0001556
 L  C0001557
 L  C0001558
 G  C0001559
 L  C0001560
 L  C0001561
 L  C0001562
 G  C0001563
 L  C0001564
 L  C0001565
 L  C0001566
 G  C0001567
 L  C0001568
 L  C0001569
 L  C0001570
 G  C0001571
 E  C0001572
 E  C0001573
 E  C0001574
 E  C0001575
 E  C0001576
 E  C0001577
 E  C0001578
 E  C0001579
 E  C0001580
 E  C0001581
 E  C0001582
 E  C0001583
 E  C0001584
 E  C0001585
 E  C0001586
 L  C0001587
 L  C0001588
 L  C0001589
 G  C0001590
 L  C0001591
 L  C0001592
 L  C0001593
 G  C0001594
 L  C0001595
 L  C0001596
 L  C0001597
 G  C0001598
 L  C0001599
 L  C0001600
 L  C0001601
 G  C0001602
 L  C0001603
 L  C0001604
 L  C0001605
 G  C0001606
 L  C0001607
 L  C0001608
 L  C0001609
 G  C0001610
 L  C0001611
 L  C0001612
 L  C0001613
 G  C0001614
 E  C0001615
 E  C0001616
 E  C0001617
 E  C0001618
 E  C0001619
 E  C0001620
 E  C0001621
 E  C0001622
 E  C0001623
 E  C0001624
 E  C0001625
 E  C0001626
 E  C0001627
 E  C0001628
 E  C0001629
 L  C0001630
 L  C0001631
 L  C0001632
 G  C0001633
 L  C0001634
 L  C0001635
 L  C0001636
 G  C0001637
 L  C0001638
 L  C0001639
 L  C0001640
 G  C0001641
 L  C0001642
 L  C0001643
 L  C0001644
 G  C0001645
 L  C0001646
 L  C0001647
 L  C0001648
 G  C0001649
 L  C0001650
 L  C0001651
 L  C0001652
 G  C0001653
 L  C0001654
 L  C0001655
 L  C0001656
 G  C0001657
 E  C0001658
 E  C0001659
 E  C0001660
 E  C0001661
 E  C0001662
 E  C0001663
 E  C0001664
 E  C0001665
 E  C0001666
 E  C0001667
 E  C0001668
 E  C0001669
 E  C0001670
 E  C0001671
 E  C0001672
 L  C0001673
 L  C0001674
 L  C0001675
 G  C0001676
 L  C0001677
 L  C0001678
 L  C0001679
 G  C0001680
 L  C0001681
 L  C0001682
 L  C0001683
 G  C0001684
 L  C0001685
 L  C0001686
 L  C0001687
 G  C0001688
 L  C0001689
 L  C0001690
 L  C0001691
 G  C0001692
 L  C0001693
 L  C0001694
 L  C0001695
 G  C0001696
 L  C0001697
 L  C0001698
 L  C0001699
 G  C0001700
 E  C0001701
 E  C0001702
 E  C0001703
 E  C0001704
 E  C0001705
 E  C0001706
 E  C0001707
 E  C0001708
 E  C0001709
 E  C0001710
 E  C0001711
 E  C0001712
 E  C0001713
 E  C0001714
 E  C0001715
 L  C0001716
 L  C0001717
 L  C0001718
 G  C0001719
 L  C0001720
 L  C0001721
 L  C0001722
 G  C0001723
 L  C0001724
 L  C0001725
 L  C0001726
 G  C0001727
 L  C0001728
 L  C0001729
 L  C0001730
 G  C0001731
 L  C0001732
 L  C0001733
 L  C0001734
 G  C0001735
 L  C0001736
 L  C0001737
 L  C0001738
 G  C0001739
 L  C0001740
 L  C0001741
 L  C0001742
 G  C0001743
 E  C0001744
 E  C0001745
 E  C0001746
 E  C0001747
 E  C0001748
 E  C0001749
 E  C0001750
 E  C0001751
 E  C0001752
 E  C0001753
 E  C0001754
 E  C0001755
 E  C0001756
 E  C0001757
 E  C0001758
 L  C0001759
 L  C0001760
 L  C0001761
 G  C0001762
 L  C0001763
 L  C0001764
 L  C0001765
 G  C0001766
 L  C0001767
 L  C0001768
 L  C0001769
 G  C0001770
 L  C0001771
 L  C0001772
 L  C0001773
 G  C0001774
 L  C0001775
 L  C0001776
 L  C0001777
 G  C0001778
 L  C0001779
 L  C0001780
 L  C0001781
 G  C0001782
 L  C0001783
 L  C0001784
 L  C0001785
 G  C0001786
 E  C0001787
 E  C0001788
 E  C0001789
 E  C0001790
 E  C0001791
 E  C0001792
 E  C0001793
 E  C0001794
 E  C0001795
 E  C0001796
 E  C0001797
 E  C0001798
 E  C0001799
 E  C0001800
 E  C0001801
 L  C0001802
 L  C0001803
 L  C0001804
 G  C0001805
 L  C0001806
 L  C0001807
 L  C0001808
 G  C0001809
 L  C0001810
 L  C0001811
 L  C0001812
 G  C0001813
 L  C0001814
 L  C0001815
 L  C0001816
 G  C0001817
 L  C0001818
 L  C0001819
 L  C0001820
 G  C0001821
 L  C0001822
 L  C0001823
 L  C0001824
 G  C0001825
 L  C0001826
 L  C0001827
 L  C0001828
 G  C0001829
 E  C0001830
 E  C0001831
 E  C0001832
 E  C0001833
 E  C0001834
 E  C0001835
 E  C0001836
 E  C0001837
 E  C0001838
 E  C0001839
 E  C0001840
 E  C0001841
 E  C0001842
 E  C0001843
 E  C0001844
 L  C0001845
 L  C0001846
 L  C0001847
 G  C0001848
 L  C0001849
 L  C0001850
 L  C0001851
 G  C0001852
 L  C0001853
 L  C0001854
 L  C0001855
 G  C0001856
 L  C0001857
 L  C0001858
 L  C0001859
 G  C0001860
 L  C0001861
 L  C0001862
 L  C0001863
 G  C0001864
 L  C0001865
 L  C0001866
 L  C0001867
 G  C0001868
 L  C0001869
 L  C0001870
 L  C0001871
 G  C0001872
 E  C0001873
 E  C0001874
 E  C0001875
 E  C0001876
 E  C0001877
 E  C0001878
 E  C0001879
 E  C0001880
 E  C0001881
 E  C0001882
 E  C0001883
 E  C0001884
 E  C0001885
 E  C0001886
 E  C0001887
 L  C0001888
 L  C0001889
 L  C0001890
 G  C0001891
 L  C0001892
 L  C0001893
 L  C0001894
 G  C0001895
 L  C0001896
 L  C0001897
 L  C0001898
 G  C0001899
 L  C0001900
 L  C0001901
 L  C0001902
 G  C0001903
 L  C0001904
 L  C0001905
 L  C0001906
 G  C0001907
 L  C0001908
 L  C0001909
 L  C0001910
 G  C0001911
 L  C0001912
 L  C0001913
 L  C0001914
 G  C0001915
 E  C0001916
 E  C0001917
 E  C0001918
 E  C0001919
 E  C0001920
 E  C0001921
 E  C0001922
 E  C0001923
 E  C0001924
 E  C0001925
 E  C0001926
 E  C0001927
 E  C0001928
 E  C0001929
 E  C0001930
 L  C0001931
 L  C0001932
 L  C0001933
 G  C0001934
 L  C0001935
 L  C0001936
 L  C0001937
 G  C0001938
 L  C0001939
 L  C0001940
 L  C0001941
 G  C0001942
 L  C0001943
 L  C0001944
 L  C0001945
 G  C0001946
 L  C0001947
 L  C0001948
 L  C0001949
 G  C0001950
 L  C0001951
 L  C0001952
 L  C0001953
 G  C0001954
 L  C0001955
 L  C0001956
 L  C0001957
 G  C0001958
 E  C0001959
 E  C0001960
 E  C0001961
 E  C0001962
 E  C0001963
 E  C0001964
 E  C0001965
 E  C0001966
 E  C0001967
 E  C0001968
 E  C0001969
 E  C0001970
 E  C0001971
 E  C0001972
 E  C0001973
 L  C0001974
 L  C0001975
 L  C0001976
 G  C0001977
 L  C0001978
 L  C0001979
 L  C0001980
 G  C0001981
 L  C0001982
 L  C0001983
 L  C0001984
 G  C0001985
 L  C0001986
 L  C0001987
 L  C0001988
 G  C0001989
 L  C0001990
 L  C0001991
 L  C0001992
 G  C0001993
 L  C0001994
 L  C0001995
 L  C0001996
 G  C0001997
 L  C0001998
 L  C0001999
 L  C0002000
 G  C0002001
 E  C0002002
 E  C0002003
 E  C0002004
 E  C0002005
 E  C0002006
 E  C0002007
 E  C0002008
 E  C0002009
 E  C0002010
 E  C0002011
 E  C0002012
 E  C0002013
 E  C0002014
 E  C0002015
 E  C0002016
 L  C0002017
 L  C0002018
 L  C0002019
 G  C0002020
 L  C0002021
 L  C0002022
 L  C0002023
 G  C0002024
 L  C0002025
 L  C0002026
 L  C0002027
 G  C0002028
 L  C0002029
 L  C0002030
 L  C0002031
 G  C0002032
 L  C0002033
 L  C0002034
 L  C0002035
 G  C0002036
 L  C0002037
 L  C0002038
 L  C0002039
 G  C0002040
 L  C0002041
 L  C0002042
 L  C0002043
 G  C0002044
 E  C0002045
 E  C0002046
 E  C0002047
 E  C0002048
 E  C0002049
 E  C0002050
 E  C0002051
 E  C0002052
 E  C0002053
 E  C0002054
 E  C0002055
 E  C0002056
 E  C0002057
 E  C0002058
 E  C0002059
 L  C0002060
 L  C0002061
 L  C0002062
 G  C0002063
 L  C0002064
 L  C0002065
 L  C0002066
 G  C0002067
 L  C0002068
 L  C0002069
 L  C0002070
 G  C0002071
 L  C0002072
 L  C0002073
 L  C0002074
 G  C0002075
 L  C0002076
 L  C0002077
 L  C0002078
 G  C0002079
 L  C0002080
 L  C0002081
 L  C0002082
 G  C0002083
 L  C0002084
 L  C0002085
 L  C0002086
 G  C0002087
 E  C0002088
 E  C0002089
 E  C0002090
 E  C0002091
 E  C0002092
 E  C0002093
 E  C0002094
 E  C0002095
 E  C0002096
 E  C0002097
 E  C0002098
 E  C0002099
 E  C0002100
 E  C0002101
 E  C0002102
 L  C0002103
 L  C0002104
 L  C0002105
 G  C0002106
 L  C0002107
 L  C0002108
 L  C0002109
 G  C0002110
 L  C0002111
 L  C0002112
 L  C0002113
 G  C0002114
 L  C0002115
 L  C0002116
 L  C0002117
 G  C0002118
 L  C0002119
 L  C0002120
 L  C0002121
 G  C0002122
 L  C0002123
 L  C0002124
 L  C0002125
 G  C0002126
 L  C0002127
 L  C0002128
 L  C0002129
 G  C0002130
 E  C0002131
 E  C0002132
 E  C0002133
 E  C0002134
 E  C0002135
 E  C0002136
 E  C0002137
 E  C0002138
 E  C0002139
 E  C0002140
 E  C0002141
 E  C0002142
 E  C0002143
 E  C0002144
 E  C0002145
 E  C0002146
 E  C0002147
 E  C0002148
 E  C0002149
 E  C0002150
 E  C0002151
 E  C0002152
 E  C0002153
 E  C0002154
 E  C0002155
 E  C0002156
 E  C0002157
 E  C0002158
 E  C0002159
 E  C0002160
 E  C0002161
 E  C0002162
 E  C0002163
 E  C0002164
 E  C0002165
 E  C0002166
 E  C0002167
 E  C0002168
 E  C0002169
 E  C0002170
 E  C0002171
 E  C0002172
 E  C0002173
 E  C0002174
 E  C0002175
 E  C0002176
 E  C0002177
 E  C0002178
 E  C0002179
 E  C0002180
 E  C0002181
 E  C0002182
 E  C0002183
 E  C0002184
 E  C0002185
 E  C0002186
 E  C0002187
 E  C0002188
 E  C0002189
 E  C0002190
 E  C0002191
 E  C0002192
 E  C0002193
 E  C0002194
 E  C0002195
 E  C0002196
 E  C0002197
 E  C0002198
 E  C0002199
 E  C0002200
 E  C0002201
 E  C0002202
 E  C0002203
 E  C0002204
 E  C0002205
COLUMNS
    X0000000  C0000000   1.000000000000e+00
    X0000000  C0000366  -1.000000000000e+00
    X0000001  C0000366   1.000000000000e+00
    X0000001  C0000367  -1.000000000000e+00
    X0000001  C0000436   1.000000000000e+00
    X0000001  C0000437  -1.000000000000e+00
    X0000001  C0000438   1.000000000000e+00
    X0000001  C0000439  -1.000000000000e+00
    X0000002  C0000375   1.000000000000e+00
    X0000002  C0000472   1.000000000000e+00
    X0000002  C0000473  -1.000000000000e+00
    X0000002  C0000474   1.000000000000e+00
    X0000002  C0000475  -1.000000000000e+00
    X0000003  C0000367   1.000000000000e+00
    X0000003  C0000368  -1.000000000000e+00
    X0000003  C0000440   1.000000000000e+00
    X0000003  C0000441  -1.000000000000e+00
    X0000003  C0000442   1.000000000000e+00
    X0000003  C0000443  -1.000000000000e+00
    X0000004  C0000368   1.000000000000e+00
    X0000004  C0000369  -1.000000000000e+00
    X0000004  C0000444   1.000000000000e+00
    X0000004  C0000445  -1.000000000000e+00
    X0000004  C0000446   1.000000000000e+00
    X0000004  C0000447  -1.000000000000e+00
    X0000005  C0000369   1.000000000000e+00
    X0000005  C0000370  -1.000000000000e+00
    X0000005  C0000448   1.000000000000e+00
    X0000005  C0000449  -1.000000000000e+00
    X0000005  C0000450   1.000000000000e+00
    X0000005  C0000451  -1.000000000000e+00
    X0000006  C0000370   1.000000000000e+00
    X0000006  C0000371  -1.000000000000e+00
    X0000006  C0000452   1.000000000000e+00
    X0000006  C0000453  -1.000000000000e+00
    X0000006  C0000454   1.000000000000e+00
    X0000006  C0000455  -1.000000000000e+00
    X0000007  C0000371   1.000000000000e+00
    X0000007  C0000372  -1.000000000000e+00
    X0000007  C0000456   1.000000000000e+00
    X0000007  C0000457  -1.000000000000e+00
    X0000007  C0000458   1.000000000000e+00
    X0000007  C0000459  -1.000000000000e+00
    X0000008  C0000372   1.000000000000e+00
    X0000008  C0000373  -1.000000000000e+00
    X0000008  C0000460   1.000000000000e+00
    X0000008  C0000461  -1.000000000000e+00
    X0000008  C0000462   1.000000000000e+00
    X0000008  C0000463  -1.000000000000e+00
    X0000009  C0000373   1.000000000000e+00
    X0000009  C0000374  -1.000000000000e+00
    X0000009  C0000464   1.000000000000e+00
    X0000009  C0000465  -1.000000000000e+00
    X0000009  C0000466   1.000000000000e+00
    X0000009  C0000467  -1.000000000000e+00
    X0000010  C0000374   1.000000000000e+00
    X0000010  C0000375  -1.000000000000e+00
    X0000010  C0000468   1.000000000000e+00
    X0000010  C0000469  -1.000000000000e+00
    X0000010  C0000470   1.000000000000e+00
    X0000010  C0000471  -1.000000000000e+00
    X0000011  C0000001   1.000000000000e+00
    X0000011  C0000376  -1.000000000000e+00
    X0000012  C0000376   1.000000000000e+00
    X0000012  C0000377  -1.000000000000e+00
    X0000012  C0000476   1.000000000000e+00
    X0000012  C0000477  -1.000000000000e+00
    X0000012  C0000478   1.000000000000e+00
    X0000012  C0000479  -1.000000000000e+00
    X0000013  C0000385   1.000000000000e+00
    X0000013  C0000512   1.000000000000e+00
    X0000013  C0000513  -1.000000000000e+00
    X0000013  C0000514   1.000000000000e+00
    X0000013  C0000515  -1.000000000000e+00
    X0000014  C0000377   1.000000000000e+00
    X0000014  C0000378  -1.000000000000e+00
    X0000014  C0000480   1.000000000000e+00
    X0000014  C0000481  -1.000000000000e+00
    X0000014  C0000482   1.000000000000e+00
    X0000014  C0000483  -1.000000000000e+00
    X0000015  C0000378   1.000000000000e+00
    X0000015  C0000379  -1.000000000000e+00
    X0000015  C0000484   1.000000000000e+00
    X0000015  C0000485  -1.000000000000e+00
    X0000015  C0000486   1.000000000000e+00
    X0000015  C0000487  -1.000000000000e+00
    X0000016  C0000379   1.000000000000e+00
    X0000016  C0000380  -1.000000000000e+00
    X0000016  C0000488   1.000000000000e+00
    X0000016  C0000489  -1.000000000000e+00
    X0000016  C0000490   1.000000000000e+00
    X0000016  C0000491  -1.000000000000e+00
    X0000017  C0000380   1.000000000000e+00
    X0000017  C0000381  -1.000000000000e+00
    X0000017  C0000492   1.000000000000e+00
    X0000017  C0000493  -1.000000000000e+00
    X0000017  C0000494   1.000000000000e+00
    X0000017  C0000495  -1.000000000000e+00
    X0000018  C0000381   1.000000000000e+00
    X0000018  C0000382  -1.000000000000e+00
    X0000018  C0000496   1.000000000000e+00
    X0000018  C0000497  -1.000000000000e+00
    X0000018  C0000498   1.000000000000e+00
    X0000018  C0000499  -1.000000000000e+00
    X0000019  C0000382   1.000000000000e+00
    X0000019  C0000383  -1.000000000000e+00
    X0000019  C0000500   1.000000000000e+00
    X0000019  C0000501  -1.000000000000e+00
    X0000019  C0000502   1.000000000000e+00
    X0000019  C0000503  -1.000000000000e+00
    X0000020  C0000383   1.000000000000e+00
    X0000020  C0000384  -1.000000000000e+00
    X0000020  C0000504   1.000000000000e+00
    X0000020  C0000505  -1.000000000000e+00
    X0000020  C0000506   1.000000000000e+00
    X0000020  C0000507  -1.000000000000e+00
    X0000021  C0000384   1.000000000000e+00
    X0000021  C0000385  -1.000000000000e+00
    X0000021  C0000508   1.000000000000e+00
    X0000021  C0000509  -1.000000000000e+00
    X0000021  C0000510   1.000000000000e+00
    X0000021  C0000511  -1.000000000000e+00
    X0000022  C0000002   1.000000000000e+00
    X0000022  C0000386  -1.000000000000e+00
    X0000023  C0000386   1.000000000000e+00
    X0000023  C0000387  -1.000000000000e+00
    X0000023  C0000516   1.000000000000e+00
    X0000023  C0000517  -1.000000000000e+00
    X0000023  C0000518   1.000000000000e+00
    X0000023  C0000519  -1.000000000000e+00
    X0000024  C0000395   1.000000000000e+00
    X0000024  C0000552   1.000000000000e+00
    X0000024  C0000553  -1.000000000000e+00
    X0000024  C0000554   1.000000000000e+00
    X0000024  C0000555  -1.000000000000e+00
    X0000025  C0000387   1.000000000000e+00
    X0000025  C0000388  -1.000000000000e+00
    X0000025  C0000520   1.000000000000e+00
    X0000025  C0000521  -1.000000000000e+00
    X0000025  C0000522   1.000000000000e+00
    X0000025  C0000523  -1.000000000000e+00
    X0000026  C0000388   1.000000000000e+00
    X0000026  C0000389  -1.000000000000e+00
    X0000026  C0000524   1.000000000000e+00
    X0000026  C0000525  -1.000000000000e+00
    X0000026  C0000526   1.000000000000e+00
    X0000026  C0000527  -1.000000000000e+00
    X0000027  C0000389   1.000000000000e+00
    X0000027  C0000390  -1.000000000000e+00
    X0000027  C0000528   1.000000000000e+00
    X0000027  C0000529  -1.000000000000e+00
    X0000027  C0000530   1.000000000000e+00
    X0000027  C0000531  -1.000000000000e+00
    X0000028  C0000390   1.000000000000e+00
    X0000028  C0000391  -1.000000000000e+00
    X0000028  C0000532   1.000000000000e+00
    X0000028  C0000533  -1.000000000000e+00
    X0000028  C0000534   1.000000000000e+00
    X0000028  C0000535  -1.000000000000e+00
    X0000029  C0000391   1.000000000000e+00
    X0000029  C0000392  -1.000000000000e+00
    X0000029  C0000536   1.000000000000e+00
    X0000029  C0000537  -1.000000000000e+00
    X0000029  C0000538   1.000000000000e+00
    X0000029  C0000539  -1.000000000000e+00
    X0000030  C0000392   1.000000000000e+00
    X0000030  C0000393  -1.000000000000e+00
    X0000030  C0000540   1.000000000000e+00
    X0000030  C0000541  -1.000000000000e+00
    X0000030  C0000542   1.000000000000e+00
    X0000030  C0000543  -1.000000000000e+00
    X0000031  C0000393   1.000000000000e+00
    X0000031  C0000394  -1.000000000000e+00
    X0000031  C0000544   1.000000000000e+00
    X0000031  C0000545  -1.000000000000e+00
    X0000031  C0000546   1.000000000000e+00
    X0000031  C0000547  -1.000000000000e+00
    X0000032  C0000394   1.000000000000e+00
    X0000032  C0000395  -1.000000000000e+00
    X0000032  C0000548   1.000000000000e+00
    X0000032  C0000549  -1.000000000000e+00
    X0000032  C0000550   1.000000000000e+00
    X0000032  C0000551  -1.000000000000e+00
    X0000033  C0000003   1.000000000000e+00
    X0000033  C0000396  -1.000000000000e+00
    X0000034  C0000396   1.000000000000e+00
    X0000034  C0000397  -1.000000000000e+00
    X0000034  C0000556   1.000000000000e+00
    X0000034  C0000557  -1.000000000000e+00
    X0000034  C0000558   1.000000000000e+00
    X0000034  C0000559  -1.000000000000e+00
    X0000035  C0000405   1.000000000000e+00
    X0000035  C0000592   1.000000000000e+00
    X0000035  C0000593  -1.000000000000e+00
    X0000035  C0000594   1.000000000000e+00
    X0000035  C0000595  -1.000000000000e+00
    X0000036  C0000397   1.000000000000e+00
    X0000036  C0000398  -1.000000000000e+00
    X0000036  C0000560   1.000000000000e+00
    X0000036  C0000561  -1.000000000000e+00
    X0000036  C0000562   1.000000000000e+00
    X0000036  C0000563  -1.000000000000e+00
    X0000037  C0000398   1.000000000000e+00
    X0000037  C0000399  -1.000000000000e+00
    X0000037  C0000564   1.000000000000e+00
    X0000037  C0000565  -1.000000000000e+00
    X0000037  C0000566   1.000000000000e+00
    X0000037  C0000567  -1.000000000000e+00
    X0000038  C0000399   1.000000000000e+00
    X0000038  C0000400  -1.000000000000e+00
    X0000038  C0000568   1.000000000000e+00
    X0000038  C0000569  -1.000000000000e+00
    X0000038  C0000570   1.000000000000e+00
    X0000038  C0000571  -1.000000000000e+00
    X0000039  C0000400   1.000000000000e+00
    X0000039  C0000401  -1.000000000000e+00
    X0000039  C0000572   1.000000000000e+00
    X0000039  C0000573  -1.000000000000e+00
    X0000039  C0000574   1.000000000000e+00
    X0000039  C0000575  -1.000000000000e+00
    X0000040  C0000401   1.000000000000e+00
    X0000040  C0000402  -1.000000000000e+00
    X0000040  C0000576   1.000000000000e+00
    X0000040  C0000577  -1.000000000000e+00
    X0000040  C0000578   1.000000000000e+00
    X0000040  C0000579  -1.000000000000e+00
    X0000041  C0000402   1.000000000000e+00
    X0000041  C0000403  -1.000000000000e+00
    X0000041  C0000580   1.000000000000e+00
    X0000041  C0000581  -1.000000000000e+00
    X0000041  C0000582   1.000000000000e+00
    X0000041  C0000583  -1.000000000000e+00
    X0000042  C0000403   1.000000000000e+00
    X0000042  C0000404  -1.000000000000e+00
    X0000042  C0000584   1.000000000000e+00
    X0000042  C0000585  -1.000000000000e+00
    X0000042  C0000586   1.000000000000e+00
    X0000042  C0000587  -1.000000000000e+00
    X0000043  C0000404   1.000000000000e+00
    X0000043  C0000405  -1.000000000000e+00
    X0000043  C0000588   1.000000000000e+00
    X0000043  C0000589  -1.000000000000e+00
    X0000043  C0000590   1.000000000000e+00
    X0000043  C0000591  -1.000000000000e+00
    X0000044  C0000004   1.000000000000e+00
    X0000044  C0000406  -1.000000000000e+00
    X0000045  C0000406   1.000000000000e+00
    X0000045  C0000407  -1.000000000000e+00
    X0000045  C0000596   1.000000000000e+00
    X0000045  C0000597  -1.000000000000e+00
    X0000045  C0000598   1.000000000000e+00
    X0000045  C0000599  -1.000000000000e+00
    X0000046  C0000415   1.000000000000e+00
    X0000046  C0000632   1.000000000000e+00
    X0000046  C0000633  -1.000000000000e+00
    X0000046  C0000634   1.000000000000e+00
    X0000046  C0000635  -1.000000000000e+00
    X0000047  C0000407   1.000000000000e+00
    X0000047  C0000408  -1.000000000000e+00
    X0000047  C0000600   1.000000000000e+00
    X0000047  C0000601  -1.000000000000e+00
    X0000047  C0000602   1.000000000000e+00
    X0000047  C0000603  -1.000000000000e+00
    X0000048  C0000408   1.000000000000e+00
    X0000048  C0000409  -1.000000000000e+00
    X0000048  C0000604   1.000000000000e+00
    X0000048  C0000605  -1.000000000000e+00
    X0000048  C0000606   1.000000000000e+00
    X0000048  C0000607  -1.000000000000e+00
    X0000049  C0000409   1.000000000000e+00
    X0000049  C0000410  -1.000000000000e+00
    X0000049  C0000608   1.000000000000e+00
    X0000049  C0000609  -1.000000000000e+00
    X0000049  C0000610   1.000000000000e+00
    X0000049  C0000611  -1.000000000000e+00
    X0000050  C0000410   1.000000000000e+00
    X0000050  C0000411  -1.000000000000e+00
    X0000050  C0000612   1.000000000000e+00
    X0000050  C0000613  -1.000000000000e+00
    X0000050  C0000614   1.000000000000e+00
    X0000050  C0000615  -1.000000000000e+00
    X0000051  C0000411   1.000000000000e+00
    X0000051  C0000412  -1.000000000000e+00
    X0000051  C0000616   1.000000000000e+00
    X0000051  C0000617  -1.000000000000e+00
    X0000051  C0000618   1.000000000000e+00
    X0000051  C0000619  -1.000000000000e+00
    X0000052  C0000412   1.000000000000e+00
    X0000052  C0000413  -1.000000000000e+00
    X0000052  C0000620   1.000000000000e+00
    X0000052  C0000621  -1.000000000000e+00
    X0000052  C0000622   1.000000000000e+00
    X0000052  C0000623  -1.000000000000e+00
    X0000053  C0000413   1.000000000000e+00
    X0000053  C0000414  -1.000000000000e+00
    X0000053  C0000624   1.000000000000e+00
    X0000053  C0000625  -1.000000000000e+00
    X0000053  C0000626   1.000000000000e+00
    X0000053  C0000627  -1.000000000000e+00
    X0000054  C0000414   1.000000000000e+00
    X0000054  C0000415  -1.000000000000e+00
    X0000054  C0000628   1.000000000000e+00
    X0000054  C0000629  -1.000000000000e+00
    X0000054  C0000630   1.000000000000e+00
    X0000054  C0000631  -1.000000000000e+00
    X0000055  C0000005   1.000000000000e+00
    X0000055  C0000416  -1.000000000000e+00
    X0000056  C0000416   1.000000000000e+00
    X0000056  C0000417  -1.000000000000e+00
    X0000056  C0000636   1.000000000000e+00
    X0000056  C0000637  -1.000000000000e+00
    X0000056  C0000638   1.000000000000e+00
    X0000056  C0000639  -1.000000000000e+00
    X0000057  C0000425   1.000000000000e+00
    X0000057  C0000672   1.000000000000e+00
    X0000057  C0000673  -1.000000000000e+00
    X0000057  C0000674   1.000000000000e+00
    X0000057  C0000675  -1.000000000000e+00
    X0000058  C0000417   1.000000000000e+00
    X0000058  C0000418  -1.000000000000e+00
    X0000058  C0000640   1.000000000000e+00
    X0000058  C0000641  -1.000000000000e+00
    X0000058  C0000642   1.000000000000e+00
    X0000058  C0000643  -1.000000000000e+00
    X0000059  C0000418   1.000000000000e+00
    X0000059  C0000419  -1.000000000000e+00
    X0000059  C0000644   1.000000000000e+00
    X0000059  C0000645  -1.000000000000e+00
    X0000059  C0000646   1.000000000000e+00
    X0000059  C0000647  -1.000000000000e+00
    X0000060  C0000419   1.000000000000e+00
    X0000060  C0000420  -1.000000000000e+00
    X0000060  C0000648   1.000000000000e+00
    X0000060  C0000649  -1.000000000000e+00
    X0000060  C0000650   1.000000000000e+00
    X0000060  C0000651  -1.000000000000e+00
    X0000061  C0000420   1.000000000000e+00
    X0000061  C0000421  -1.000000000000e+00
    X0000061  C0000652   1.000000000000e+00
    X0000061  C0000653  -1.000000000000e+00
    X0000061  C0000654   1.000000000000e+00
    X0000061  C0000655  -1.000000000000e+00
    X0000062  C0000421   1.000000000000e+00
    X0000062  C0000422  -1.000000000000e+00
    X0000062  C0000656   1.000000000000e+00
    X0000062  C0000657  -1.000000000000e+00
    X0000062  C0000658   1.000000000000e+00
    X0000062  C0000659  -1.000000000000e+00
    X0000063  C0000422   1.000000000000e+00
    X0000063  C0000423  -1.000000000000e+00
    X0000063  C0000660   1.000000000000e+00
    X0000063  C0000661  -1.000000000000e+00
    X0000063  C0000662   1.000000000000e+00
    X0000063  C0000663  -1.000000000000e+00
    X0000064  C0000423   1.000000000000e+00
    X0000064  C0000424  -1.000000000000e+00
    X0000064  C0000664   1.000000000000e+00
    X0000064  C0000665  -1.000000000000e+00
    X0000064  C0000666   1.000000000000e+00
    X0000064  C0000667  -1.000000000000e+00
    X0000065  C0000424   1.000000000000e+00
    X0000065  C0000425  -1.000000000000e+00
    X0000065  C0000668   1.000000000000e+00
    X0000065  C0000669  -1.000000000000e+00
    X0000065  C0000670   1.000000000000e+00
    X0000065  C0000671  -1.000000000000e+00
    MARK      'MARKER'                 'INTORG'
    X0000066  C0000006   1.000000000000e+00
    X0000066  C0000374  -1.000000000000e+00
    X0000066  C0000426   1.000000000000e+00
    MARK      'MARKER'                 'INTEND'
    MARK      'MARKER'                 'INTORG'
    X0000067  C0000015   1.000000000000e+00
    X0000067  C0000435   1.000000000000e+00
    MARK      'MARKER'                 'INTEND'
    MARK      'MARKER'                 'INTORG'
    X0000068  C0000007   1.000000000000e+00
    X0000068  C0000375  -1.000000000000e+00
    X0000068  C0000427   1.000000000000e+00
    MARK      'MARKER'                 'INTEND'
    MARK      'MARKER'                 'INTORG'
    X0000069  C0000008   1.000000000000e+00
    X0000069  C0000428   1.000000000000e+00
    MARK      'MARKER'                 'INTEND'
    MARK      'MARKER'                 'INTORG'
    X0000070  C0000009   1.000000000000e+00
    X0000070  C0000429   1.000000000000e+00
    MARK      'MARKER'                 'INTEND'
    MARK      'MARKER'                 'INTORG'
    X0000071  C0000010   1.000000000000e+00
    X0000071  C0000430   1.000000000000e+00
    MARK      'MARKER'                 'INTEND'
    MARK      'MARKER'                 'INTORG'
    X0000072  C0000011   1.000000000000e+00
    X0000072  C0000431   1.000000000000e+00
    MARK      'MARKER'                 'INTEND'
    MARK      'MARKER'                 'INTORG'
    X0000073  C0000012   1.000000000000e+00
    X0000073  C0000432   1.000000000000e+00
    MARK      'MARKER'                 'INTEND'
    MARK      'MARKER'                 'INTORG'
    X0000074  C0000013   1.000000000000e+00
    X0000074  C0000433   1.000000000000e+00
    MARK      'MARKER'                 'INTEND'
    MARK      'MARKER'                 'INTORG'
    X0000075  C0000014   1.000000000000e+00
    X0000075  C0000434   1.000000000000e+00
    MARK      'MARKER'                 'INTEND'
    MARK      'MARKER'                 'INTORG'
    X0000076  C0000016   1.000000000000e+00
    X0000076  C0000384  -1.000000000000e+00
    X0000076  C0000426   1.000000000000e+00
    MARK      'MARKER'                 'INTEND'
    MARK      'MARKER'                 'INTORG'
    X0000077  C0000025   1.000000000000e+00
    X0000077  C0000435   1.000000000000e+00
    MARK      'MARKER'                 'INTEND'
    MARK      'MARKER'                 'INTORG'
    X0000078  C0000017   1.000000000000e+00
    X0000078  C0000385  -1.000000000000e+00
    X0000078  C0000427   1.000000000000e+00
    MARK      'MARKER'                 'INTEND'
    MARK      'MARKER'                 'INTORG'
    X0000079  C0000018   1.000000000000e+00
    X0000079  C0000428   1.000000000000e+00
    MARK      'MARKER'                 'INTEND'
    MARK      'MARKER'                 'INTORG'
    X0000080  C0000019   1.000000000000e+00
    X0000080  C0000429   1.000000000000e+00
    MARK      'MARKER'                 'INTEND'
    MARK      'MARKER'                 'INTORG'
    X0000081  C0000020   1.000000000000e+00
    X0000081  C0000430   1.000000000000e+00
    MARK      'MARKER'                 'INTEND'
    MARK      'MARKER'                 'INTORG'
    X0000082  C0000021   1.000000000000e+00
    X0000082  C0000431   1.000000000000e+00
    MARK      'MARKER'                 'INTEND'
    MARK      'MARKER'                 'INTORG'
    X0000083  C0000022   1.000000000000e+00
    X0000083  C0000432   1.000000000000e+00
    MARK      'MARKER'                 'INTEND'
    MARK      'MARKER'                 'INTORG'
    X0000084  C0000023   1.000000000000e+00
    X0000084  C0000433   1.000000000000e+00
    MARK      'MARKER'                 'INTEND'
    MARK      'MARKER'                 'INTORG'
    X0000085  C0000024   1.000000000000e+00
    X0000085  C0000434   1.000000000000e+00
    MARK      'MARKER'                 'INTEND'
    MARK      'MARKER'                 'INTORG'
    X0000086  C0000026   1.000000000000e+00
    X0000086  C0000394  -1.000000000000e+00
    X0000086  C0000426   1.000000000000e+00
    MARK      'MARKER'                 'INTEND'
    MARK      'MARKER'                 'INTORG'
    X0000087  C0000035   1.000000000000e+00
    X0000087  C0000435   1.000000000000e+00
    MARK      'MARKER'                 'INTEND'
    MARK      'MARKER'                 'INTORG'
    X0000088  C0000027   1.000000000000e+00
    X0000088  C0000395  -1.000000000000e+00
    X0000088  C0000427   1.000000000000e+00
    MARK      'MARKER'                 'INTEND'
    MARK      'MARKER'                 'INTORG'
    X0000089  C0000028   1.000000000000e+00
    X0000089  C0000428   1.000000000000e+00
    MARK      'MARKER'                 'INTEND'
    MARK      'MARKER'                 'INTORG'
    X0000090  C0000029   1.000000000000e+00
    X0000090  C0000429   1.000000000000e+00
    MARK      'MARKER'                 'INTEND'
    MARK      'MARKER'                 'INTORG'
    X0000091  C0000030   1.000000000000e+00
    X0000091  C0000430   1.000000000000e+00
    MARK      'MARKER'                 'INTEND'
    MARK      'MARKER'                 'INTORG'
    X0000092  C0000031   1.000000000000e+00
    X0000092  C0000431   1.000000000000e+00
    MARK      'MARKER'                 'INTEND'
    MARK      'MARKER'                 'INTORG'
    X0000093  C0000032   1.000000000000e+00
    X0000093  C0000432   1.000000000000e+00
    MARK      'MARKER'                 'INTEND'
    MARK      'MARKER'                 'INTORG'
    X0000094  C0000033   1.000000000000e+00
    X0000094  C0000433   1.000000000000e+00
    MARK      'MARKER'                 'INTEND'
    MARK      'MARKER'                 'INTORG'
    X0000095  C0000034   1.000000000000e+00
    X0000095  C0000434   1.000000000000e+00
    MARK      'MARKER'                 'INTEND'
    MARK      'MARKER'                 'INTORG'
    X0000096  C0000036   1.000000000000e+00
    X0000096  C0000404  -1.000000000000e+00
    X0000096  C0000426   1.000000000000e+00
    MARK      'MARKER'                 'INTEND'
    MARK      'MARKER'                 'INTORG'
    X0000097  C0000045   1.000000000000e+00
    X0000097  C0000435   1.000000000000e+00
    MARK      'MARKER'                 'INTEND'
    MARK      'MARKER'                 'INTORG'
    X0000098  C0000037   1.000000000000e+00
    X0000098  C0000405  -1.000000000000e+00
    X0000098  C0000427   1.000000000000e+00
    MARK      'MARKER'                 'INTEND'
    MARK      'MARKER'                 'INTORG'
    X0000099  C0000038   1.000000000000e+00
    X0000099  C0000428   1.000000000000e+00
    MARK      'MARKER'                 'INTEND'
    MARK      'MARKER'                 'INTORG'
    X0000100  C0000039   1.000000000000e+00
    X0000100  C0000429   1.000000000000e+00
    MARK      'MARKER'                 'INTEND'
    MARK      'MARKER'                 'INTORG'
    X0000101  C0000040   1.000000000000e+00
    X0000101  C0000430   1.000000000000e+00
    MARK      'MARKER'                 'INTEND'
    MARK      'MARKER'                 'INTORG'
    X0000102  C0000041   1.000000000000e+00
    X0000102  C0000431   1.000000000000e+00
    MARK      'MARKER'                 'INTEND'
    MARK      'MARKER'                 'INTORG'
    X0000103  C0000042   1.000000000000e+00
    X0000103  C0000432   1.000000000000e+00
    MARK      'MARKER'                 'INTEND'
    MARK      'MARKER'                 'INTORG'
    X0000104  C0000043   1.000000000000e+00
    X0000104  C0000433   1.000000000000e+00
    MARK      'MARKER'                 'INTEND'
    MARK      'MARKER'                 'INTORG'
    X0000105  C0000044   1.000000000000e+00
    X0000105  C0000434   1.000000000000e+00
    MARK      'MARKER'                 'INTEND'
    MARK      'MARKER'                 'INTORG'
    X0000106  C0000046   1.000000000000e+00
    X0000106  C0000414  -1.000000000000e+00
    X0000106  C0000426   1.000000000000e+00
    MARK      'MARKER'                 'INTEND'
    MARK      'MARKER'                 'INTORG'
    X0000107  C0000055   1.000000000000e+00
    X0000107  C0000435   1.000000000000e+00
    MARK      'MARKER'                 'INTEND'
    MARK      'MARKER'                 'INTORG'
    X0000108  C0000047   1.000000000000e+00
    X0000108  C0000415  -1.000000000000e+00
    X0000108  C0000427   1.000000000000e+00
    MARK      'MARKER'                 'INTEND'
    MARK      'MARKER'                 'INTORG'
    X0000109  C0000048   1.000000000000e+00
    X0000109  C0000428   1.000000000000e+00
    MARK      'MARKER'                 'INTEND'
    MARK      'MARKER'                 'INTORG'
    X0000110  C0000049   1.000000000000e+00
    X0000110  C0000429   1.000000000000e+00
    MARK      'MARKER'                 'INTEND'
    MARK      'MARKER'                 'INTORG'
    X0000111  C0000050   1.000000000000e+00
    X0000111  C0000430   1.000000000000e+00
    MARK      'MARKER'                 'INTEND'
    MARK      'MARKER'                 'INTORG'
    X0000112  C0000051   1.000000000000e+00
    X0000112  C0000431   1.000000000000e+00
    MARK      'MARKER'                 'INTEND'
    MARK      'MARKER'                 'INTORG'
    X0000113  C0000052   1.000000000000e+00
    X0000113  C0000432   1.000000000000e+00
    MARK      'MARKER'                 'INTEND'
    MARK      'MARKER'                 'INTORG'
    X0000114  C0000053   1.000000000000e+00
    X0000114  C0000433   1.000000000000e+00
    MARK      'MARKER'                 'INTEND'
    MARK      'MARKER'                 'INTORG'
    X0000115  C0000054   1.000000000000e+00
    X0000115  C0000434   1.000000000000e+00
    MARK      'MARKER'                 'INTEND'
    MARK      'MARKER'                 'INTORG'
    X0000116  C0000056   1.000000000000e+00
    X0000116  C0000424  -1.000000000000e+00
    X0000116  C0000426   1.000000000000e+00
    MARK      'MARKER'                 'INTEND'
    MARK      'MARKER'                 'INTORG'
    X0000117  C0000065   1.000000000000e+00
    X0000117  C0000435   1.000000000000e+00
    MARK      'MARKER'                 'INTEND'
    MARK      'MARKER'                 'INTORG'
    X0000118  C0000057   1.000000000000e+00
    X0000118  C0000425  -1.000000000000e+00
    X0000118  C0000427   1.000000000000e+00
    MARK      'MARKER'                 'INTEND'
    MARK      'MARKER'                 'INTORG'
    X0000119  C0000058   1.000000000000e+00
    X0000119  C0000428   1.000000000000e+00
    MARK      'MARKER'                 'INTEND'
    MARK      'MARKER'                 'INTORG'
    X0000120  C0000059   1.000000000000e+00
    X0000120  C0000429   1.000000000000e+00
    MARK      'MARKER'                 'INTEND'
    MARK      'MARKER'                 'INTORG'
    X0000121  C0000060   1.000000000000e+00
    X0000121  C0000430   1.000000000000e+00
    MARK      'MARKER'                 'INTEND'
    MARK      'MARKER'                 'INTORG'
    X0000122  C0000061   1.000000000000e+00
    X0000122  C0000431   1.000000000000e+00
    MARK      'MARKER'                 'INTEND'
    MARK      'MARKER'                 'INTORG'
    X0000123  C0000062   1.000000000000e+00
    X0000123  C0000432   1.000000000000e+00
    MARK      'MARKER'                 'INTEND'
    MARK      'MARKER'                 'INTORG'
    X0000124  C0000063   1.000000000000e+00
    X0000124  C0000433   1.000000000000e+00
    MARK      'MARKER'                 'INTEND'
    MARK      'MARKER'                 'INTORG'
    X0000125  C0000064   1.000000000000e+00
    X0000125  C0000434   1.000000000000e+00
    MARK      'MARKER'                 'INTEND'
    MARK      'MARKER'                 'INTORG'
    X0000126  C0000066   1.000000000000e+00
    X0000126  C0000366   1.000000000000e+00
    X0000126  C0000378  -1.000000000000e+00
    X0000126  C0000439   1.000000000000e+00
    X0000126  C0000857   1.000000000000e+00
    MARK      'MARKER'                 'INTEND'
    MARK      'MARKER'                 'INTORG'
    X0000127  C0000075   1.000000000000e+00
    X0000127  C0000375   1.000000000000e+00
    X0000127  C0000475   1.000000000000e+00
    X0000127  C0000896   1.000000000000e+00
    MARK      'MARKER'                 'INTEND'
    MARK      'MARKER'                 'INTORG'
    X0000128  C0000067   1.000000000000e+00
    X0000128  C0000367   1.000000000000e+00
    X0000128  C0000379  -1.000000000000e+00
    X0000128  C0000443   1.000000000000e+00
    X0000128  C0000861   1.000000000000e+00
    MARK      'MARKER'                 'INTEND'
    MARK      'MARKER'                 'INTORG'
    X0000129  C0000068   1.000000000000e+00
    X0000129  C0000368   1.000000000000e+00
    X0000129  C0000380  -1.000000000000e+00
    X0000129  C0000447   1.000000000000e+00
    X0000129  C0000865   1.000000000000e+00
    MARK      'MARKER'                 'INTEND'
    MARK      'MARKER'                 'INTORG'
    X0000130  C0000069   1.000000000000e+00
    X0000130  C0000369   1.000000000000e+00
    X0000130  C0000381  -1.000000000000e+00
    X0000130  C0000451   1.000000000000e+00
    X0000130  C0000869   1.000000000000e+00
    MARK      'MARKER'                 'INTEND'
    MARK      'MARKER'                 'INTORG'
    X0000131  C0000070   1.000000000000e+00
    X0000131  C0000370   1.000000000000e+00
    X0000131  C0000382  -1.000000000000e+00
    X0000131  C0000455   1.000000000000e+00
    X0000131  C0000873   1.000000000000e+00
    MARK      'MARKER'                 'INTEND'
    MARK      'MARKER'                 'INTORG'
    X0000132  C0000071   1.000000000000e+00
    X0000132  C0000371   1.000000000000e+00
    X0000132  C0000383  -1.000000000000e+00
    X0000132  C0000459   1.000000000000e+00
    X0000132  C0000877   1.000000000000e+00
    MARK      'MARKER'                 'INTEND'
    MARK      'MARKER'                 'INTORG'
    X0000133  C0000072   1.000000000000e+00
    X0000133  C0000372   1.000000000000e+00
    X0000133  C0000384  -1.000000000000e+00
    X0000133  C0000463   1.000000000000e+00
    X0000133  C0000881   1.000000000000e+00
    MARK      'MARKER'                 'INTEND'
    MARK      'MARKER'                 'INTORG'
    X0000134  C0000073   1.000000000000e+00
    X0000134  C0000373   1.000000000000e+00
    X0000134  C0000385  -1.000000000000e+00
    X0000134  C0000467   1.000000000000e+00
    X0000134  C0000886   1.000000000000e+00
    MARK      'MARKER'                 'INTEND'
    MARK      'MARKER'                 'INTORG'
    X0000135  C0000074   1.000000000000e+00
    X0000135  C0000374   1.000000000000e+00
    X0000135  C0000471   1.000000000000e+00
    X0000135  C0000891   1.000000000000e+00
    MARK      'MARKER'                 'INTEND'
    MARK      'MARKER'                 'INTORG'
    X0000136  C0000076   1.000000000000e+00
    X0000136  C0000366   1.000000000000e+00
    X0000136  C0000389  -1.000000000000e+00
    X0000136  C0000439   1.000000000000e+00
    X0000136  C0000900   1.000000000000e+00
    MARK      'MARKER'                 'INTEND'
    MARK      'MARKER'                 'INTORG'
    X0000137  C0000085   1.000000000000e+00
    X0000137  C0000375   1.000000000000e+00
    X0000137  C0000475   1.000000000000e+00
    X0000137  C0000939   1.000000000000e+00
    MARK      'MARKER'                 'INTEND'
    MARK      'MARKER'                 'INTORG'
    X0000138  C0000077   1.000000000000e+00
    X0000138  C0000367   1.000000000000e+00
    X0000138  C0000390  -1.000000000000e+00
    X0000138  C0000443   1.000000000000e+00
    X0000138  C0000904   1.000000000000e+00
    MARK      'MARKER'                 'INTEND'
    MARK      'MARKER'                 'INTORG'
    X0000139  C0000078   1.000000000000e+00
    X0000139  C0000368   1.000000000000e+00
    X0000139  C0000391  -1.000000000000e+00
    X0000139  C0000447   1.000000000000e+00
    X0000139  C0000908   1.000000000000e+00
    MARK      'MARKER'                 'INTEND'
    MARK      'MARKER'                 'INTORG'
    X0000140  C0000079   1.000000000000e+00
    X0000140  C0000369   1.000000000000e+00
    X0000140  C0000392  -1.000000000000e+00
    X0000140  C0000451   1.000000000000e+00
    X0000140  C0000912   1.000000000000e+00
    MARK      'MARKER'                 'INTEND'
    MARK      'MARKER'                 'INTORG'
    X0000141  C0000080   1.000000000000e+00
    X0000141  C0000370   1.000000000000e+00
    X0000141  C0000393  -1.000000000000e+00
    X0000141  C0000455   1.000000000000e+00
    X0000141  C0000916   1.000000000000e+00
    MARK      'MARKER'                 'INTEND'
    MARK      'MARKER'                 'INTORG'
    X0000142  C0000081   1.000000000000e+00
    X0000142  C0000371   1.000000000000e+00
    X0000142  C0000394  -1.000000000000e+00
    X0000142  C0000459   1.000000000000e+00
    X0000142  C0000920   1.000000000000e+00
    MARK      'MARKER'                 'INTEND'
    MARK      'MARKER'                 'INTORG'
    X0000143  C0000082   1.000000000000e+00
    X0000143  C0000372   1.000000000000e+00
    X0000143  C0000395  -1.000000000000e+00
    X0000143  C0000463   1.000000000000e+00
    X0000143  C0000924   1.000000000000e+00
    MARK      'MARKER'                 'INTEND'
    MARK      'MARKER'                 'INTORG'
    X0000144  C0000083   1.000000000000e+00
    X0000144  C0000373   1.000000000000e+00
    X0000144  C0000467   1.000000000000e+00
    X0000144  C0000929   1.000000000000e+00
    MARK      'MARKER'                 'INTEND'
    MARK      'MARKER'                 'INTORG'
    X0000145  C0000084   1.000000000000e+00
    X0000145  C0000374   1.000000000000e+00
    X0000145  C0000471   1.000000000000e+00
    X0000145  C0000934   1.000000000000e+00
    MARK      'MARKER'                 'INTEND'
    MARK      'MARKER'                 'INTORG'
    X0000146  C0000086   1.000000000000e+00
    X0000146  C0000366   1.000000000000e+00
    X0000146  C0000399  -1.000000000000e+00
    X0000146  C0000439   1.000000000000e+00
    X0000146  C0000943   1.000000000000e+00
    MARK      'MARKER'                 'INTEND'
    MARK      'MARKER'                 'INTORG'
    X0000147  C0000095   1.000000000000e+00
    X0000147  C0000375   1.000000000000e+00
    X0000147  C0000475   1.000000000000e+00
    X0000147  C0000982   1.000000000000e+00
    MARK      'MARKER'                 'INTEND'
    MARK      'MARKER'                 'INTORG'
    X0000148  C0000087   1.000000000000e+00
    X0000148  C0000367   1.000000000000e+00
    X0000148  C0000400  -1.000000000000e+00
    X0000148  C0000443   1.000000000000e+00
    X0000148  C0000947   1.000000000000e+00
    MARK      'MARKER'                 'INTEND'
    MARK      'MARKER'                 'INTORG'
    X0000149  C0000088   1.000000000000e+00
    X0000149  C0000368   1.000000000000e+00
    X0000149  C0000401  -1.000000000000e+00
    X0000149  C0000447   1.000000000000e+00
    X0000149  C0000951   1.000000000000e+00
    MARK      'MARKER'                 'INTEND'
    MARK      'MARKER'                 'INTORG'
    X0000150  C0000089   1.000000000000e+00
    X0000150  C0000369   1.000000000000e+00
    X0000150  C0000402  -1.000000000000e+00
    X0000150  C0000451   1.000000000000e+00
    X0000150  C0000955   1.000000000000e+00
    MARK      'MARKER'                 'INTEND'
    MARK      'MARKER'                 'INTORG'
    X0000151  C0000090   1.000000000000e+00
    X0000151  C0000370   1.000000000000e+00
    X0000151  C0000403  -1.000000000000e+00
    X0000151  C0000455   1.000000000000e+00
    X0000151  C0000959   1.000000000000e+00
    MARK      'MARKER'                 'INTEND'
    MARK      'MARKER'                 'INTORG'
    X0000152  C0000091   1.000000000000e+00
    X0000152  C0000371   1.000000000000e+00
    X0000152  C0000404  -1.000000000000e+00
    X0000152  C0000459   1.000000000000e+00
    X0000152  C0000963   1.000000000000e+00
    MARK      'MARKER'                 'INTEND'
    MARK      'MARKER'                 'INTORG'
    X0000153  C0000092   1.000000000000e+00
    X0000153  C0000372   1.000000000000e+00
    X0000153  C0000405  -1.000000000000e+00
    X0000153  C0000463   1.000000000000e+00
    X0000153  C0000967   1.000000000000e+00
    MARK      'MARKER'                 'INTEND'
    MARK      'MARKER'                 'INTORG'
    X0000154  C0000093   1.000000000000e+00
    X0000154  C0000373   1.000000000000e+00
    X0000154  C0000467   1.000000000000e+00
    X0000154  C0000972   1.000000000000e+00
    MARK      'MARKER'                 'INTEND'
    MARK      'MARKER'                 'INTORG'
    X0000155  C0000094   1.000000000000e+00
    X0000155  C0000374   1.000000000000e+00
    X0000155  C0000471   1.000000000000e+00
    X0000155  C0000977   1.000000000000e+00
    MARK      'MARKER'                 'INTEND'
    MARK      'MARKER'                 'INTORG'
    X0000156  C0000096   1.000000000000e+00
    X0000156  C0000366   1.000000000000e+00
    X0000156  C0000408  -1.000000000000e+00
    X0000156  C0000439   1.000000000000e+00
    X0000156  C0000986   1.000000000000e+00
    MARK      'MARKER'                 'INTEND'
    MARK      'MARKER'                 'INTORG'
    X0000157  C0000105   1.000000000000e+00
    X0000157  C0000375   1.000000000000e+00
    X0000157  C0000475   1.000000000000e+00
    X0000157  C0001025   1.000000000000e+00
    MARK      'MARKER'                 'INTEND'
    MARK      'MARKER'                 'INTORG'
    X0000158  C0000097   1.000000000000e+00
    X0000158  C0000367   1.000000000000e+00
    X0000158  C0000409  -1.000000000000e+00
    X0000158  C0000443   1.000000000000e+00
    X0000158  C0000990   1.000000000000e+00
    MARK      'MARKER'                 'INTEND'
    MARK      'MARKER'                 'INTORG'
    X0000159  C0000098   1.000000000000e+00
    X0000159  C0000368   1.000000000000e+00
    X0000159  C0000410  -1.000000000000e+00
    X0000159  C0000447   1.000000000000e+00
    X0000159  C0000994   1.000000000000e+00
    MARK      'MARKER'                 'INTEND'
    MARK      'MARKER'                 'INTORG'
    X0000160  C0000099   1.000000000000e+00
    X0000160  C0000369   1.000000000000e+00
    X0000160  C0000411  -1.000000000000e+00
    X0000160  C0000451   1.000000000000e+00
    X0000160  C0000998   1.000000000000e+00
    MARK      'MARKER'                 'INTEND'
    MARK      'MARKER'                 'INTORG'
    X0000161  C0000100   1.000000000000e+00
    X0000161  C0000370   1.000000000000e+00
    X0000161  C0000412  -1.000000000000e+00
    X0000161  C0000455   1.000000000000e+00
    X0000161  C0001002   1.000000000000e+00
    MARK      'MARKER'                 'INTEND'
    MARK      'MARKER'                 'INTORG'
    X0000162  C0000101   1.000000000000e+00
    X0000162  C0000371   1.000000000000e+00
    X0000162  C0000413  -1.000000000000e+00
    X0000162  C0000459   1.000000000000e+00
    X0000162  C0001006   1.000000000000e+00
    MARK      'MARKER'                 'INTEND'
    MARK      'MARKER'                 'INTORG'
    X0000163  C0000102   1.000000000000e+00
    X0000163  C0000372   1.000000000000e+00
    X0000163  C0000414  -1.000000000000e+00
    X0000163  C0000463   1.000000000000e+00
    X0000163  C0001010   1.000000000000e+00
    MARK      'MARKER'                 'INTEND'
    MARK      'MARKER'                 'INTORG'
    X0000164  C0000103   1.000000000000e+00
    X0000164  C0000373   1.000000000000e+00
    X0000164  C0000415  -1.000000000000e+00
    X0000164  C0000467   1.000000000000e+00
    X0000164  C0001015   1.000000000000e+00
    MARK      'MARKER'                 'INTEND'
    MARK      'MARKER'                 'INTORG'
    X0000165  C0000104   1.000000000000e+00
    X0000165  C0000374   1.000000000000e+00
    X0000165  C0000471   1.000000000000e+00
    X0000165  C0001020   1.000000000000e+00
    MARK      'MARKER'                 'INTEND'
    MARK      'MARKER'                 'INTORG'
    X0000166  C0000106   1.000000000000e+00
    X0000166  C0000366   1.000000000000e+00
    X0000166  C0000419  -1.000000000000e+00
    X0000166  C0000439   1.000000000000e+00
    X0000166  C0001029   1.000000000000e+00
    MARK      'MARKER'                 'INTEND'
    MARK      'MARKER'                 'INTORG'
    X0000167  C0000115   1.000000000000e+00
    X0000167  C0000375   1.000000000000e+00
    X0000167  C0000475   1.000000000000e+00
    X0000167  C0001068   1.000000000000e+00
    MARK      'MARKER'                 'INTEND'
    MARK      'MARKER'                 'INTORG'
    X0000168  C0000107   1.000000000000e+00
    X0000168  C0000367   1.000000000000e+00
    X0000168  C0000420  -1.000000000000e+00
    X0000168  C0000443   1.000000000000e+00
    X0000168  C0001033   1.000000000000e+00
    MARK      'MARKER'                 'INTEND'
    MARK      'MARKER'                 'INTORG'
    X0000169  C0000108   1.000000000000e+00
    X0000169  C0000368   1.000000000000e+00
    X0000169  C0000421  -1.000000000000e+00
    X0000169  C0000447   1.000000000000e+00
    X0000169  C0001037   1.000000000000e+00
    MARK      'MARKER'                 'INTEND'
    MARK      'MARKER'                 'INTORG'
    X0000170  C0000109   1.000000000000e+00
    X0000170  C0000369   1.000000000000e+00
    X0000170  C0000422  -1.000000000000e+00
    X0000170  C0000451   1.000000000000e+00
    X0000170  C0001041   1.000000000000e+00
    MARK      'MARKER'                 'INTEND'
    MARK      'MARKER'                 'INTORG'
    X0000171  C0000110   1.000000000000e+00
    X0000171  C0000370   1.000000000000e+00
    X0000171  C0000423  -1.000000000000e+00
    X0000171  C0000455   1.000000000000e+00
    X0000171  C0001045   1.000000000000e+00
    MARK      'MARKER'                 'INTEND'
    MARK      'MARKER'                 'INTORG'
    X0000172  C0000111   1.000000000000e+00
    X0000172  C0000371   1.000000000000e+00
    X0000172  C0000424  -1.000000000000e+00
    X0000172  C0000459   1.000000000000e+00
    X0000172  C0001049   1.000000000000e+00
    MARK      'MARKER'                 'INTEND'
    MARK      'MARKER'                 'INTORG'
    X0000173  C0000112   1.000000000000e+00
    X0000173  C0000372   1.000000000000e+00
    X0000173  C0000425  -1.000000000000e+00
    X0000173  C0000463   1.000000000000e+00
    X0000173  C0001053   1.000000000000e+00
    MARK      'MARKER'                 'INTEND'
    MARK      'MARKER'                 'INTORG'
    X0000174  C0000113   1.000000000000e+00
    X0000174  C0000373   1.000000000000e+00
    X0000174  C0000467   1.000000000000e+00
    X0000174  C0001058   1.000000000000e+00
    MARK      'MARKER'                 'INTEND'
    MARK      'MARKER'                 'INTORG'
    X0000175  C0000114   1.000000000000e+00
    X0000175  C0000374   1.000000000000e+00
    X0000175  C0000471   1.000000000000e+00
    X0000175  C0001063   1.000000000000e+00
    MARK      'MARKER'                 'INTEND'
    MARK      'MARKER'                 'INTORG'
    X0000176  C0000116   1.000000000000e+00
    X0000176  C0000368  -1.000000000000e+00
    X0000176  C0000376   1.000000000000e+00
    X0000176  C0000479   1.000000000000e+00
    X0000176  C0001072   1.000000000000e+00
    MARK      'MARKER'                 'INTEND'
    MARK      'MARKER'                 'INTORG'
    X0000177  C0000125   1.000000000000e+00
    X0000177  C0000385   1.000000000000e+00
    X0000177  C0000515   1.000000000000e+00
    X0000177  C0001111   1.000000000000e+00
    MARK      'MARKER'                 'INTEND'
    MARK      'MARKER'                 'INTORG'
    X0000178  C0000117   1.000000000000e+00
    X0000178  C0000369  -1.000000000000e+00
    X0000178  C0000377   1.000000000000e+00
    X0000178  C0000483   1.000000000000e+00
    X0000178  C0001076   1.000000000000e+00
    MARK      'MARKER'                 'INTEND'
    MARK      'MARKER'                 'INTORG'
    X0000179  C0000118   1.000000000000e+00
    X0000179  C0000370  -1.000000000000e+00
    X0000179  C0000378   1.000000000000e+00
    X0000179  C0000487   1.000000000000e+00
    X0000179  C0001080   1.000000000000e+00
    MARK      'MARKER'                 'INTEND'
    MARK      'MARKER'                 'INTORG'
    X0000180  C0000119   1.000000000000e+00
    X0000180  C0000371  -1.000000000000e+00
    X0000180  C0000379   1.000000000000e+00
    X0000180  C0000491   1.000000000000e+00
    X0000180  C0001084   1.000000000000e+00
    MARK      'MARKER'                 'INTEND'
    MARK      'MARKER'                 'INTORG'
    X0000181  C0000120   1.000000000000e+00
    X0000181  C0000372  -1.000000000000e+00
    X0000181  C0000380   1.000000000000e+00
    X0000181  C0000495   1.000000000000e+00
    X0000181  C0001088   1.000000000000e+00
    MARK      'MARKER'                 'INTEND'
    MARK      'MARKER'                 'INTORG'
    X0000182  C0000121   1.000000000000e+00
    X0000182  C0000373  -1.000000000000e+00
    X0000182  C0000381   1.000000000000e+00
    X0000182  C0000499   1.000000000000e+00
    X0000182  C0001092   1.000000000000e+00
    MARK      'MARKER'                 'INTEND'
    MARK      'MARKER'                 'INTORG'
    X0000183  C0000122   1.000000000000e+00
    X0000183  C0000374  -1.000000000000e+00
    X0000183  C0000382   1.000000000000e+00
    X0000183  C0000503   1.000000000000e+00
    X0000183  C0001096   1.000000000000e+00
    MARK      'MARKER'                 'INTEND'
    MARK      'MARKER'                 'INTORG'
    X0000184  C0000123   1.000000000000e+00
    X0000184  C0000375  -1.000000000000e+00
    X0000184  C0000383   1.000000000000e+00
    X0000184  C0000507   1.000000000000e+00
    X0000184  C0001101   1.000000000000e+00
    MARK      'MARKER'                 'INTEND'
    MARK      'MARKER'                 'INTORG'
    X0000185  C0000124   1.000000000000e+00
    X0000185  C0000384   1.000000000000e+00
    X0000185  C0000511   1.000000000000e+00
    X0000185  C0001106   1.000000000000e+00
    MARK      'MARKER'                 'INTEND'
    MARK      'MARKER'                 'INTORG'
    X0000186  C0000126   1.000000000000e+00
    X0000186  C0000376   1.000000000000e+00
    X0000186  C0000388  -1.000000000000e+00
    X0000186  C0000479   1.000000000000e+00
    X0000186  C0001115   1.000000000000e+00
    MARK      'MARKER'                 'INTEND'
    MARK      'MARKER'                 'INTORG'
    X0000187  C0000135   1.000000000000e+00
    X0000187  C0000385   1.000000000000e+00
    X0000187  C0000515   1.000000000000e+00
    X0000187  C0001154   1.000000000000e+00
    MARK      'MARKER'                 'INTEND'
    MARK      'MARKER'                 'INTORG'
    X0000188  C0000127   1.000000000000e+00
    X0000188  C0000377   1.000000000000e+00
    X0000188  C0000389  -1.000000000000e+00
    X0000188  C0000483   1.000000000000e+00
    X0000188  C0001119   1.000000000000e+00
    MARK      'MARKER'                 'INTEND'
    MARK      'MARKER'                 'INTORG'
    X0000189  C0000128   1.000000000000e+00
    X0000189  C0000378   1.000000000000e+00
    X0000189  C0000390  -1.000000000000e+00
    X0000189  C0000487   1.000000000000e+00
    X0000189  C0001123   1.000000000000e+00
    MARK      'MARKER'                 'INTEND'
    MARK      'MARKER'                 'INTORG'
    X0000190  C0000129   1.000000000000e+00
    X0000190  C0000379   1.000000000000e+00
    X0000190  C0000391  -1.000000000000e+00
    X0000190  C0000491   1.000000000000e+00
    X0000190  C0001127   1.000000000000e+00
    MARK      'MARKER'                 'INTEND'
    MARK      'MARKER'                 'INTORG'
    X0000191  C0000130   1.000000000000e+00
    X0000191  C0000380   1.000000000000e+00
    X0000191  C0000392  -1.000000000000e+00
    X0000191  C0000495   1.000000000000e+00
    X0000191  C0001131   1.000000000000e+00
    MARK      'MARKER'                 'INTEND'
    MARK      'MARKER'                 'INTORG'
    X0000192  C0000131   1.000000000000e+00
    X0000192  C0000381   1.000000000000e+00
    X0000192  C0000393  -1.000000000000e+00
    X0000192  C0000499   1.000000000000e+00
    X0000192  C0001135   1.000000000000e+00
    MARK      'MARKER'                 'INTEND'
    MARK      'MARKER'                 'INTORG'
    X0000193  C0000132   1.000000000000e+00
    X0000193  C0000382   1.000000000000e+00
    X0000193  C0000394  -1.000000000000e+00
    X0000193  C0000503   1.000000000000e+00
    X0000193  C0001139   1.000000000000e+00
    MARK      'MARKER'                 'INTEND'
    MARK      'MARKER'                 'INTORG'
    X0000194  C0000133   1.000000000000e+00
    X0000194  C0000383   1.000000000000e+00
    X0000194  C0000395  -1.000000000000e+00
    X0000194  C0000507   1.000000000000e+00
    X0000194  C0001144   1.000000000000e+00
    MARK      'MARKER'                 'INTEND'
    MARK      'MARKER'                 'INTORG'
    X0000195  C0000134   1.000000000000e+00
    X0000195  C0000384   1.000000000000e+00
    X0000195  C0000511   1.000000000000e+00
    X0000195  C0001149   1.000000000000e+00
    MARK      'MARKER'                 'INTEND'
    MARK      'MARKER'                 'INTORG'
    X0000196  C0000136   1.000000000000e+00
    X0000196  C0000376   1.000000000000e+00
    X0000196  C0000398  -1.000000000000e+00
    X0000196  C0000479   1.000000000000e+00
    X0000196  C0001158   1.000000000000e+00
    MARK      'MARKER'                 'INTEND'
    MARK      'MARKER'                 'INTORG'
    X0000197  C0000145   1.000000000000e+00
    X0000197  C0000385   1.000000000000e+00
    X0000197  C0000515   1.000000000000e+00
    X0000197  C0001197   1.000000000000e+00
    MARK      'MARKER'                 'INTEND'
    MARK      'MARKER'                 'INTORG'
    X0000198  C0000137   1.000000000000e+00
    X0000198  C0000377   1.000000000000e+00
    X0000198  C0000399  -1.000000000000e+00
    X0000198  C0000483   1.000000000000e+00
    X0000198  C0001162   1.000000000000e+00
    MARK      'MARKER'                 'INTEND'
    MARK      'MARKER'                 'INTORG'
    X0000199  C0000138   1.000000000000e+00
    X0000199  C0000378   1.000000000000e+00
    X0000199  C0000400  -1.000000000000e+00
    X0000199  C0000487   1.000000000000e+00
    X0000199  C0001166   1.000000000000e+00
    MARK      'MARKER'                 'INTEND'
    MARK      'MARKER'                 'INTORG'
    X0000200  C0000139   1.000000000000e+00
    X0000200  C0000379   1.000000000000e+00
    X0000200  C0000401  -1.000000000000e+00
    X0000200  C0000491   1.000000000000e+00
    X0000200  C0001170   1.000000000000e+00
    MARK      'MARKER'                 'INTEND'
    MARK      'MARKER'                 'INTORG'
    X0000201  C0000140   1.000000000000e+00
    X0000201  C0000380   1.000000000000e+00
    X0000201  C0000402  -1.000000000000e+00
    X0000201  C0000495   1.000000000000e+00
    X0000201  C0001174   1.000000000000e+00
    MARK      'MARKER'                 'INTEND'
    MARK      'MARKER'                 'INTORG'
    X0000202  C0000141   1.000000000000e+00
    X0000202  C0000381   1.000000000000e+00
    X0000202  C0000403  -1.000000000000e+00
    X0000202  C0000499   1.000000000000e+00
    X0000202  C0001178   1.000000000000e+00
    MARK      'MARKER'                 'INTEND'
    MARK      'MARKER'                 'INTORG'
    X0000203  C0000142   1.000000000000e+00
    X0000203  C0000382   1.000000000000e+00
    X0000203  C0000404  -1.000000000000e+00
    X0000203  C0000503   1.000000000000e+00
    X0000203  C0001182   1.000000000000e+00
    MARK      'MARKER'                 'INTEND'
    MARK      'MARKER'                 'INTORG'
    X0000204  C0000143   1.000000000000e+00
    X0000204  C0000383   1.000000000000e+00
    X0000204  C0000405  -1.000000000000e+00
    X0000204  C0000507   1.000000000000e+00
    X0000204  C0001187   1.000000000000e+00
    MARK      'MARKER'                 'INTEND'
    MARK      'MARKER'                 'INTORG'
    X0000205  C0000144   1.000000000000e+00
    X0000205  C0000384   1.000000000000e+00
    X0000205  C0000511   1.000000000000e+00
    X0000205  C0001192   1.000000000000e+00
    MARK      'MARKER'                 'INTEND'
    MARK      'MARKER'                 'INTORG'
    X0000206  C0000146   1.000000000000e+00
    X0000206  C0000376   1.000000000000e+00
    X0000206  C0000408  -1.000000000000e+00
    X0000206  C0000479   1.000000000000e+00
    X0000206  C0001201   1.000000000000e+00
    MARK      'MARKER'                 'INTEND'
    MARK      'MARKER'                 'INTORG'
    X0000207  C0000155   1.000000000000e+00
    X0000207  C0000385   1.000000000000e+00
    X0000207  C0000515   1.000000000000e+00
    X0000207  C0001240   1.000000000000e+00
    MARK      'MARKER'                 'INTEND'
    MARK      'MARKER'                 'INTORG'
    X0000208  C0000147   1.000000000000e+00
    X0000208  C0000377   1.000000000000e+00
    X0000208  C0000409  -1.000000000000e+00
    X0000208  C0000483   1.000000000000e+00
    X0000208  C0001205   1.000000000000e+00
    MARK      'MARKER'                 'INTEND'
    MARK      'MARKER'                 'INTORG'
    X0000209  C0000148   1.000000000000e+00
    X0000209  C0000378   1.000000000000e+00
    X0000209  C0000410  -1.000000000000e+00
    X0000209  C0000487   1.000000000000e+00
    X0000209  C0001209   1.000000000000e+00
    MARK      'MARKER'                 'INTEND'
    MARK      'MARKER'                 'INTORG'
    X0000210  C0000149   1.000000000000e+00
    X0000210  C0000379   1.000000000000e+00
    X0000210  C0000411  -1.000000000000e+00
    X0000210  C0000491   1.000000000000e+00
    X0000210  C0001213   1.000000000000e+00
    MARK      'MARKER'                 'INTEND'
    MARK      'MARKER'                 'INTORG'
    X0000211  C0000150   1.000000000000e+00
    X0000211  C0000380   1.000000000000e+00
    X0000211  C0000412  -1.000000000000e+00
    X0000211  C0000495   1.000000000000e+00
    X0000211  C0001217   1.000000000000e+00
    MARK      'MARKER'                 'INTEND'
    MARK      'MARKER'                 'INTORG'
    X0000212  C0000151   1.000000000000e+00
    X0000212  C0000381   1.000000000000e+00
    X0000212  C0000413  -1.000000000000e+00
    X0000212  C0000499   1.000000000000e+00
    X0000212  C0001221   1.000000000000e+00
    MARK      'MARKER'                 'INTEND'
    MARK      'MARKER'                 'INTORG'
    X0000213  C0000152   1.000000000000e+00
    X0000213  C0000382   1.000000000000e+00
    X0000213  C0000414  -1.000000000000e+00
    X0000213  C0000503   1.000000000000e+00
    X0000213  C0001225   1.000000000000e+00
    MARK      'MARKER'                 'INTEND'
    MARK      'MARKER'                 'INTORG'
    X0000214  C0000153   1.000000000000e+00
    X0000214  C0000383   1.000000000000e+00
    X0000214  C0000415  -1.000000000000e+00
    X0000214  C0000507   1.000000000000e+00
    X0000214  C0001230   1.000000000000e+00
    MARK      'MARKER'                 'INTEND'
    MARK      'MARKER'                 'INTORG'
    X0000215  C0000154   1.000000000000e+00
    X0000215  C0000384   1.000000000000e+00
    X0000215  C0000511   1.000000000000e+00
    X0000215  C0001235   1.000000000000e+00
    MARK      'MARKER'                 'INTEND'
    MARK      'MARKER'                 'INTORG'
    X0000216  C0000156   1.000000000000e+00
    X0000216  C0000376   1.000000000000e+00
    X0000216  C0000418  -1.000000000000e+00
    X0000216  C0000479   1.000000000000e+00
    X0000216  C0001244   1.000000000000e+00
    MARK      'MARKER'                 'INTEND'
    MARK      'MARKER'                 'INTORG'
    X0000217  C0000165   1.000000000000e+00
    X0000217  C0000385   1.000000000000e+00
    X0000217  C0000515   1.000000000000e+00
    X0000217  C0001283   1.000000000000e+00
    MARK      'MARKER'                 'INTEND'
    MARK      'MARKER'                 'INTORG'
    X0000218  C0000157   1.000000000000e+00
    X0000218  C0000377   1.000000000000e+00
    X0000218  C0000419  -1.000000000000e+00
    X0000218  C0000483   1.000000000000e+00
    X0000218  C0001248   1.000000000000e+00
    MARK      'MARKER'                 'INTEND'
    MARK      'MARKER'                 'INTORG'
    X0000219  C0000158   1.000000000000e+00
    X0000219  C0000378   1.000000000000e+00
    X0000219  C0000420  -1.000000000000e+00
    X0000219  C0000487   1.000000000000e+00
    X0000219  C0001252   1.000000000000e+00
    MARK      'MARKER'                 'INTEND'
    MARK      'MARKER'                 'INTORG'
    X0000220  C0000159   1.000000000000e+00
    X0000220  C0000379   1.000000000000e+00
    X0000220  C0000421  -1.000000000000e+00
    X0000220  C0000491   1.000000000000e+00
    X0000220  C0001256   1.000000000000e+00
    MARK      'MARKER'                 'INTEND'
    MARK      'MARKER'                 'INTORG'
    X0000221  C0000160   1.000000000000e+00
    X0000221  C0000380   1.000000000000e+00
    X0000221  C0000422  -1.000000000000e+00
    X0000221  C0000495   1.000000000000e+00
    X0000221  C0001260   1.000000000000e+00
    MARK      'MARKER'                 'INTEND'
    MARK      'MARKER'                 'INTORG'
    X0000222  C0000161   1.000000000000e+00
    X0000222  C0000381   1.000000000000e+00
    X0000222  C0000423  -1.000000000000e+00
    X0000222  C0000499   1.000000000000e+00
    X0000222  C0001264   1.000000000000e+00
    MARK      'MARKER'                 'INTEND'
    MARK      'MARKER'                 'INTORG'
    X0000223  C0000162   1.000000000000e+00
    X0000223  C0000382   1.000000000000e+00
    X0000223  C0000424  -1.000000000000e+00
    X0000223  C0000503   1.000000000000e+00
    X0000223  C0001268   1.000000000000e+00
    MARK      'MARKER'                 'INTEND'
    MARK      'MARKER'                 'INTORG'
    X0000224  C0000163   1.000000000000e+00
    X0000224  C0000383   1.000000000000e+00
    X0000224  C0000425  -1.000000000000e+00
    X0000224  C0000507   1.000000000000e+00
    X0000224  C0001273   1.000000000000e+00
    MARK      'MARKER'                 'INTEND'
    MARK      'MARKER'                 'INTORG'
    X0000225  C0000164   1.000000000000e+00
    X0000225  C0000384   1.000000000000e+00
    X0000225  C0000511   1.000000000000e+00
    X0000225  C0001278   1.000000000000e+00
    MARK      'MARKER'                 'INTEND'
    MARK      'MARKER'                 'INTORG'
    X0000226  C0000166   1.000000000000e+00
    X0000226  C0000368  -1.000000000000e+00
    X0000226  C0000386   1.000000000000e+00
    X0000226  C0000519   1.000000000000e+00
    X0000226  C0001287   1.000000000000e+00
    MARK      'MARKER'                 'INTEND'
    MARK      'MARKER'                 'INTORG'
    X0000227  C0000175   1.000000000000e+00
    X0000227  C0000395   1.000000000000e+00
    X0000227  C0000555   1.000000000000e+00
    X0000227  C0001326   1.000000000000e+00
    MARK      'MARKER'                 'INTEND'
    MARK      'MARKER'                 'INTORG'
    X0000228  C0000167   1.000000000000e+00
    X0000228  C0000369  -1.000000000000e+00
    X0000228  C0000387   1.000000000000e+00
    X0000228  C0000523   1.000000000000e+00
    X0000228  C0001291   1.000000000000e+00
    MARK      'MARKER'                 'INTEND'
    MARK      'MARKER'                 'INTORG'
    X0000229  C0000168   1.000000000000e+00
    X0000229  C0000370  -1.000000000000e+00
    X0000229  C0000388   1.000000000000e+00
    X0000229  C0000527   1.000000000000e+00
    X0000229  C0001295   1.000000000000e+00
    MARK      'MARKER'                 'INTEND'
    MARK      'MARKER'                 'INTORG'
    X0000230  C0000169   1.000000000000e+00
    X0000230  C0000371  -1.000000000000e+00
    X0000230  C0000389   1.000000000000e+00
    X0000230  C0000531   1.000000000000e+00
    X0000230  C0001299   1.000000000000e+00
    MARK      'MARKER'                 'INTEND'
    MARK      'MARKER'                 'INTORG'
    X0000231  C0000170   1.000000000000e+00
    X0000231  C0000372  -1.000000000000e+00
    X0000231  C0000390   1.000000000000e+00
    X0000231  C0000535   1.000000000000e+00
    X0000231  C0001303   1.000000000000e+00
    MARK      'MARKER'                 'INTEND'
    MARK      'MARKER'                 'INTORG'
    X0000232  C0000171   1.000000000000e+00
    X0000232  C0000373  -1.000000000000e+00
    X0000232  C0000391   1.000000000000e+00
    X0000232  C0000539   1.000000000000e+00
    X0000232  C0001307   1.000000000000e+00
    MARK      'MARKER'                 'INTEND'
    MARK      'MARKER'                 'INTORG'
    X0000233  C0000172   1.000000000000e+00
    X0000233  C0000374  -1.000000000000e+00
    X0000233  C0000392   1.000000000000e+00
    X0000233  C0000543   1.000000000000e+00
    X0000233  C0001311   1.000000000000e+00
    MARK      'MARKER'                 'INTEND'
    MARK      'MARKER'                 'INTORG'
    X0000234  C0000173   1.000000000000e+00
    X0000234  C0000375  -1.000000000000e+00
    X0000234  C0000393   1.000000000000e+00
    X0000234  C0000547   1.000000000000e+00
    X0000234  C0001316   1.000000000000e+00
    MARK      'MARKER'                 'INTEND'
    MARK      'MARKER'                 'INTORG'
    X0000235  C0000174   1.000000000000e+00
    X0000235  C0000394   1.000000000000e+00
    X0000235  C0000551   1.000000000000e+00
    X0000235  C0001321   1.000000000000e+00
    MARK      'MARKER'                 'INTEND'
    MARK      'MARKER'                 'INTORG'
    X0000236  C0000176   1.000000000000e+00
    X0000236  C0000378  -1.000000000000e+00
    X0000236  C0000386   1.000000000000e+00
    X0000236  C0000519   1.000000000000e+00
    X0000236  C0001330   1.000000000000e+00
    MARK      'MARKER'                 'INTEND'
    MARK      'MARKER'                 'INTORG'
    X0000237  C0000185   1.000000000000e+00
    X0000237  C0000395   1.000000000000e+00
    X0000237  C0000555   1.000000000000e+00
    X0000237  C0001369   1.000000000000e+00
    MARK      'MARKER'                 'INTEND'
    MARK      'MARKER'                 'INTORG'
    X0000238  C0000177   1.000000000000e+00
    X0000238  C0000379  -1.000000000000e+00
    X0000238  C0000387   1.000000000000e+00
    X0000238  C0000523   1.000000000000e+00
    X0000238  C0001334   1.000000000000e+00
    MARK      'MARKER'                 'INTEND'
    MARK      'MARKER'                 'INTORG'
    X0000239  C0000178   1.000000000000e+00
    X0000239  C0000380  -1.000000000000e+00
    X0000239  C0000388   1.000000000000e+00
    X0000239  C0000527   1.000000000000e+00
    X0000239  C0001338   1.000000000000e+00
    MARK      'MARKER'                 'INTEND'
    MARK      'MARKER'                 'INTORG'
    X0000240  C0000179   1.000000000000e+00
    X0000240  C0000381  -1.000000000000e+00
    X0000240  C0000389   1.000000000000e+00
    X0000240  C0000531   1.000000000000e+00
    X0000240  C0001342   1.000000000000e+00
    MARK      'MARKER'                 'INTEND'
    MARK      'MARKER'                 'INTORG'
    X0000241  C0000180   1.000000000000e+00
    X0000241  C0000382  -1.000000000000e+00
    X0000241  C0000390   1.000000000000e+00
    X0000241  C0000535   1.000000000000e+00
    X0000241  C0001346   1.000000000000e+00
    MARK      'MARKER'                 'INTEND'
    MARK      'MARKER'                 'INTORG'
    X0000242  C0000181   1.000000000000e+00
    X0000242  C0000383  -1.000000000000e+00
    X0000242  C0000391   1.000000000000e+00
    X0000242  C0000539   1.000000000000e+00
    X0000242  C0001350   1.000000000000e+00
    MARK      'MARKER'                 'INTEND'
    MARK      'MARKER'                 'INTORG'
    X0000243  C0000182   1.000000000000e+00
    X0000243  C0000384  -1.000000000000e+00
    X0000243  C0000392   1.000000000000e+00
    X0000243  C0000543   1.000000000000e+00
    X0000243  C0001354   1.000000000000e+00
    MARK      'MARKER'                 'INTEND'
    MARK      'MARKER'                 'INTORG'
    X0000244  C0000183   1.000000000000e+00
    X0000244  C0000385  -1.000000000000e+00
    X0000244  C0000393   1.000000000000e+00
    X0000244  C0000547   1.000000000000e+00
    X0000244  C0001359   1.000000000000e+00
    MARK      'MARKER'                 'INTEND'
    MARK      'MARKER'                 'INTORG'
    X0000245  C0000184   1.000000000000e+00
    X0000245  C0000394   1.000000000000e+00
    X0000245  C0000551   1.000000000000e+00
    X0000245  C0001364   1.000000000000e+00
    MARK      'MARKER'                 'INTEND'
    MARK      'MARKER'                 'INTORG'
    X0000246  C0000186   1.000000000000e+00
    X0000246  C0000386   1.000000000000e+00
    X0000246  C0000399  -1.000000000000e+00
    X0000246  C0000519   1.000000000000e+00
    X0000246  C0001373   1.000000000000e+00
    MARK      'MARKER'                 'INTEND'
    MARK      'MARKER'                 'INTORG'
    X0000247  C0000195   1.000000000000e+00
    X0000247  C0000395   1.000000000000e+00
    X0000247  C0000555   1.000000000000e+00
    X0000247  C0001412   1.000000000000e+00
    MARK      'MARKER'                 'INTEND'
    MARK      'MARKER'                 'INTORG'
    X0000248  C0000187   1.000000000000e+00
    X0000248  C0000387   1.000000000000e+00
    X0000248  C0000400  -1.000000000000e+00
    X0000248  C0000523   1.000000000000e+00
    X0000248  C0001377   1.000000000000e+00
    MARK      'MARKER'                 'INTEND'
    MARK      'MARKER'                 'INTORG'
    X0000249  C0000188   1.000000000000e+00
    X0000249  C0000388   1.000000000000e+00
    X0000249  C0000401  -1.000000000000e+00
    X0000249  C0000527   1.000000000000e+00
    X0000249  C0001381   1.000000000000e+00
    MARK      'MARKER'                 'INTEND'
    MARK      'MARKER'                 'INTORG'
    X0000250  C0000189   1.000000000000e+00
    X0000250  C0000389   1.000000000000e+00
    X0000250  C0000402  -1.000000000000e+00
    X0000250  C0000531   1.000000000000e+00
    X0000250  C0001385   1.000000000000e+00
    MARK      'MARKER'                 'INTEND'
    MARK      'MARKER'                 'INTORG'
    X0000251  C0000190   1.000000000000e+00
    X0000251  C0000390   1.000000000000e+00
    X0000251  C0000403  -1.000000000000e+00
    X0000251  C0000535   1.000000000000e+00
    X0000251  C0001389   1.000000000000e+00
    MARK      'MARKER'                 'INTEND'
    MARK      'MARKER'                 'INTORG'
    X0000252  C0000191   1.000000000000e+00
    X0000252  C0000391   1.000000000000e+00
    X0000252  C0000404  -1.000000000000e+00
    X0000252  C0000539   1.000000000000e+00
    X0000252  C0001393   1.000000000000e+00
    MARK      'MARKER'                 'INTEND'
    MARK      'MARKER'                 'INTORG'
    X0000253  C0000192   1.000000000000e+00
    X0000253  C0000392   1.000000000000e+00
    X0000253  C0000405  -1.000000000000e+00
    X0000253  C0000543   1.000000000000e+00
    X0000253  C0001397   1.000000000000e+00
    MARK      'MARKER'                 'INTEND'
    MARK      'MARKER'                 'INTORG'
    X0000254  C0000193   1.000000000000e+00
    X0000254  C0000393   1.000000000000e+00
    X0000254  C0000547   1.000000000000e+00
    X0000254  C0001402   1.000000000000e+00
    MARK      'MARKER'                 'INTEND'
    MARK      'MARKER'                 'INTORG'
    X0000255  C0000194   1.000000000000e+00
    X0000255  C0000394   1.000000000000e+00
    X0000255  C0000551   1.000000000000e+00
    X0000255  C0001407   1.000000000000e+00
    MARK      'MARKER'                 'INTEND'
    MARK      'MARKER'                 'INTORG'
    X0000256  C0000196   1.000000000000e+00
    X0000256  C0000386   1.000000000000e+00
    X0000256  C0000408  -1.000000000000e+00
    X0000256  C0000519   1.000000000000e+00
    X0000256  C0001416   1.000000000000e+00
    MARK      'MARKER'                 'INTEND'
    MARK      'MARKER'                 'INTORG'
    X0000257  C0000205   1.000000000000e+00
    X0000257  C0000395   1.000000000000e+00
    X0000257  C0000555   1.000000000000e+00
    X0000257  C0001455   1.000000000000e+00
    MARK      'MARKER'                 'INTEND'
    MARK      'MARKER'                 'INTORG'
    X0000258  C0000197   1.000000000000e+00
    X0000258  C0000387   1.000000000000e+00
    X0000258  C0000409  -1.000000000000e+00
    X0000258  C0000523   1.000000000000e+00
    X0000258  C0001420   1.000000000000e+00
    MARK      'MARKER'                 'INTEND'
    MARK      'MARKER'                 'INTORG'
    X0000259  C0000198   1.000000000000e+00
    X0000259  C0000388   1.000000000000e+00
    X0000259  C0000410  -1.000000000000e+00
    X0000259  C0000527   1.000000000000e+00
    X0000259  C0001424   1.000000000000e+00
    MARK      'MARKER'                 'INTEND'
    MARK      'MARKER'                 'INTORG'
    X0000260  C0000199   1.000000000000e+00
    X0000260  C0000389   1.000000000000e+00
    X0000260  C0000411  -1.000000000000e+00
    X0000260  C0000531   1.000000000000e+00
    X0000260  C0001428   1.000000000000e+00
    MARK      'MARKER'                 'INTEND'
    MARK      'MARKER'                 'INTORG'
    X0000261  C0000200   1.000000000000e+00
    X0000261  C0000390   1.000000000000e+00
    X0000261  C0000412  -1.000000000000e+00
    X0000261  C0000535   1.000000000000e+00
    X0000261  C0001432   1.000000000000e+00
    MARK      'MARKER'                 'INTEND'
    MARK      'MARKER'                 'INTORG'
    X0000262  C0000201   1.000000000000e+00
    X0000262  C0000391   1.000000000000e+00
    X0000262  C0000413  -1.000000000000e+00
    X0000262  C0000539   1.000000000000e+00
    X0000262  C0001436   1.000000000000e+00
    MARK      'MARKER'                 'INTEND'
    MARK      'MARKER'                 'INTORG'
    X0000263  C0000202   1.000000000000e+00
    X0000263  C0000392   1.000000000000e+00
    X0000263  C0000414  -1.000000000000e+00
    X0000263  C0000543   1.000000000000e+00
    X0000263  C0001440   1.000000000000e+00
    MARK      'MARKER'                 'INTEND'
    MARK      'MARKER'                 'INTORG'
    X0000264  C0000203   1.000000000000e+00
    X0000264  C0000393   1.000000000000e+00
    X0000264  C0000415  -1.000000000000e+00
    X0000264  C0000547   1.000000000000e+00
    X0000264  C0001445   1.000000000000e+00
    MARK      'MARKER'                 'INTEND'
    MARK      'MARKER'                 'INTORG'
    X0000265  C0000204   1.000000000000e+00
    X0000265  C0000394   1.000000000000e+00
    X0000265  C0000551   1.000000000000e+00
    X0000265  C0001450   1.000000000000e+00
    MARK      'MARKER'                 'INTEND'
    MARK      'MARKER'                 'INTORG'
    X0000266  C0000206   1.000000000000e+00
    X0000266  C0000386   1.000000000000e+00
    X0000266  C0000418  -1.000000000000e+00
    X0000266  C0000519   1.000000000000e+00
    X0000266  C0001459   1.000000000000e+00
    MARK      'MARKER'                 'INTEND'
    MARK      'MARKER'                 'INTORG'
    X0000267  C0000215   1.000000000000e+00
    X0000267  C0000395   1.000000000000e+00
    X0000267  C0000555   1.000000000000e+00
    X0000267  C0001498   1.000000000000e+00
    MARK      'MARKER'                 'INTEND'
    MARK      'MARKER'                 'INTORG'
    X0000268  C0000207   1.000000000000e+00
    X0000268  C0000387   1.000000000000e+00
    X0000268  C0000419  -1.000000000000e+00
    X0000268  C0000523   1.000000000000e+00
    X0000268  C0001463   1.000000000000e+00
    MARK      'MARKER'                 'INTEND'
    MARK      'MARKER'                 'INTORG'
    X0000269  C0000208   1.000000000000e+00
    X0000269  C0000388   1.000000000000e+00
    X0000269  C0000420  -1.000000000000e+00
    X0000269  C0000527   1.000000000000e+00
    X0000269  C0001467   1.000000000000e+00
    MARK      'MARKER'                 'INTEND'
    MARK      'MARKER'                 'INTORG'
    X0000270  C0000209   1.000000000000e+00
    X0000270  C0000389   1.000000000000e+00
    X0000270  C0000421  -1.000000000000e+00
    X0000270  C0000531   1.000000000000e+00
    X0000270  C0001471   1.000000000000e+00
    MARK      'MARKER'                 'INTEND'
    MARK      'MARKER'                 'INTORG'
    X0000271  C0000210   1.000000000000e+00
    X0000271  C0000390   1.000000000000e+00
    X0000271  C0000422  -1.000000000000e+00
    X0000271  C0000535   1.000000000000e+00
    X0000271  C0001475   1.000000000000e+00
    MARK      'MARKER'                 'INTEND'
    MARK      'MARKER'                 'INTORG'
    X0000272  C0000211   1.000000000000e+00
    X0000272  C0000391   1.000000000000e+00
    X0000272  C0000423  -1.000000000000e+00
    X0000272  C0000539   1.000000000000e+00
    X0000272  C0001479   1.000000000000e+00
    MARK      'MARKER'                 'INTEND'
    MARK      'MARKER'                 'INTORG'
    X0000273  C0000212   1.000000000000e+00
    X0000273  C0000392   1.000000000000e+00
    X0000273  C0000424  -1.000000000000e+00
    X0000273  C0000543   1.000000000000e+00
    X0000273  C0001483   1.000000000000e+00
    MARK      'MARKER'                 'INTEND'
    MARK      'MARKER'                 'INTORG'
    X0000274  C0000213   1.000000000000e+00
    X0000274  C0000393   1.000000000000e+00
    X0000274  C0000425  -1.000000000000e+00
    X0000274  C0000547   1.000000000000e+00
    X0000274  C0001488   1.000000000000e+00
    MARK      'MARKER'                 'INTEND'
    MARK      'MARKER'                 'INTORG'
    X0000275  C0000214   1.000000000000e+00
    X0000275  C0000394   1.000000000000e+00
    X0000275  C0000551   1.000000000000e+00
    X0000275  C0001493   1.000000000000e+00
    MARK      'MARKER'                 'INTEND'
    MARK      'MARKER'                 'INTORG'
    X0000276  C0000216   1.000000000000e+00
    X0000276  C0000368  -1.000000000000e+00
    X0000276  C0000396   1.000000000000e+00
    X0000276  C0000559   1.000000000000e+00
    X0000276  C0001502   1.000000000000e+00
    MARK      'MARKER'                 'INTEND'
    MARK      'MARKER'                 'INTORG'
    X0000277  C0000225   1.000000000000e+00
    X0000277  C0000405   1.000000000000e+00
    X0000277  C0000595   1.000000000000e+00
    X0000277  C0001541   1.000000000000e+00
    MARK      'MARKER'                 'INTEND'
    MARK      'MARKER'                 'INTORG'
    X0000278  C0000217   1.000000000000e+00
    X0000278  C0000369  -1.000000000000e+00
    X0000278  C0000397   1.000000000000e+00
    X0000278  C0000563   1.000000000000e+00
    X0000278  C0001506   1.000000000000e+00
    MARK      'MARKER'                 'INTEND'
    MARK      'MARKER'                 'INTORG'
    X0000279  C0000218   1.000000000000e+00
    X0000279  C0000370  -1.000000000000e+00
    X0000279  C0000398   1.000000000000e+00
    X0000279  C0000567   1.000000000000e+00
    X0000279  C0001510   1.000000000000e+00
    MARK      'MARKER'                 'INTEND'
    MARK      'MARKER'                 'INTORG'
    X0000280  C0000219   1.000000000000e+00
    X0000280  C0000371  -1.000000000000e+00
    X0000280  C0000399   1.000000000000e+00
    X0000280  C0000571   1.000000000000e+00
    X0000280  C0001514   1.000000000000e+00
    MARK      'MARKER'                 'INTEND'
    MARK      'MARKER'                 'INTORG'
    X0000281  C0000220   1.000000000000e+00
    X0000281  C0000372  -1.000000000000e+00
    X0000281  C0000400   1.000000000000e+00
    X0000281  C0000575   1.000000000000e+00
    X0000281  C0001518   1.000000000000e+00
    MARK      'MARKER'                 'INTEND'
    MARK      'MARKER'                 'INTORG'
    X0000282  C0000221   1.000000000000e+00
    X0000282  C0000373  -1.000000000000e+00
    X0000282  C0000401   1.000000000000e+00
    X0000282  C0000579   1.000000000000e+00
    X0000282  C0001522   1.000000000000e+00
    MARK      'MARKER'                 'INTEND'
    MARK      'MARKER'                 'INTORG'
    X0000283  C0000222   1.000000000000e+00
    X0000283  C0000374  -1.000000000000e+00
    X0000283  C0000402   1.000000000000e+00
    X0000283  C0000583   1.000000000000e+00
    X0000283  C0001526   1.000000000000e+00
    MARK      'MARKER'                 'INTEND'
    MARK      'MARKER'                 'INTORG'
    X0000284  C0000223   1.000000000000e+00
    X0000284  C0000375  -1.000000000000e+00
    X0000284  C0000403   1.000000000000e+00
    X0000284  C0000587   1.000000000000e+00
    X0000284  C0001531   1.000000000000e+00
    MARK      'MARKER'                 'INTEND'
    MARK      'MARKER'                 'INTORG'
    X0000285  C0000224   1.000000000000e+00
    X0000285  C0000404   1.000000000000e+00
    X0000285  C0000591   1.000000000000e+00
    X0000285  C0001536   1.000000000000e+00
    MARK      'MARKER'                 'INTEND'
    MARK      'MARKER'                 'INTORG'
    X0000286  C0000226   1.000000000000e+00
    X0000286  C0000379  -1.000000000000e+00
    X0000286  C0000396   1.000000000000e+00
    X0000286  C0000559   1.000000000000e+00
    X0000286  C0001545   1.000000000000e+00
    MARK      'MARKER'                 'INTEND'
    MARK      'MARKER'                 'INTORG'
    X0000287  C0000235   1.000000000000e+00
    X0000287  C0000405   1.000000000000e+00
    X0000287  C0000595   1.000000000000e+00
    X0000287  C0001584   1.000000000000e+00
    MARK      'MARKER'                 'INTEND'
    MARK      'MARKER'                 'INTORG'
    X0000288  C0000227   1.000000000000e+00
    X0000288  C0000380  -1.000000000000e+00
    X0000288  C0000397   1.000000000000e+00
    X0000288  C0000563   1.000000000000e+00
    X0000288  C0001549   1.000000000000e+00
    MARK      'MARKER'                 'INTEND'
    MARK      'MARKER'                 'INTORG'
    X0000289  C0000228   1.000000000000e+00
    X0000289  C0000381  -1.000000000000e+00
    X0000289  C0000398   1.000000000000e+00
    X0000289  C0000567   1.000000000000e+00
    X0000289  C0001553   1.000000000000e+00
    MARK      'MARKER'                 'INTEND'
    MARK      'MARKER'                 'INTORG'
    X0000290  C0000229   1.000000000000e+00
    X0000290  C0000382  -1.000000000000e+00
    X0000290  C0000399   1.000000000000e+00
    X0000290  C0000571   1.000000000000e+00
    X0000290  C0001557   1.000000000000e+00
    MARK      'MARKER'                 'INTEND'
    MARK      'MARKER'                 'INTORG'
    X0000291  C0000230   1.000000000000e+00
    X0000291  C0000383  -1.000000000000e+00
    X0000291  C0000400   1.000000000000e+00
    X0000291  C0000575   1.000000000000e+00
    X0000291  C0001561   1.000000000000e+00
    MARK      'MARKER'                 'INTEND'
    MARK      'MARKER'                 'INTORG'
    X0000292  C0000231   1.000000000000e+00
    X0000292  C0000384  -1.000000000000e+00
    X0000292  C0000401   1.000000000000e+00
    X0000292  C0000579   1.000000000000e+00
    X0000292  C0001565   1.000000000000e+00
    MARK      'MARKER'                 'INTEND'
    MARK      'MARKER'                 'INTORG'
    X0000293  C0000232   1.000000000000e+00
    X0000293  C0000385  -1.000000000000e+00
    X0000293  C0000402   1.000000000000e+00
    X0000293  C0000583   1.000000000000e+00
    X0000293  C0001569   1.000000000000e+00
    MARK      'MARKER'                 'INTEND'
    MARK      'MARKER'                 'INTORG'
    X0000294  C0000233   1.000000000000e+00
    X0000294  C0000403   1.000000000000e+00
    X0000294  C0000587   1.000000000000e+00
    X0000294  C0001574   1.000000000000e+00
    MARK      'MARKER'                 'INTEND'
    MARK      'MARKER'                 'INTORG'
    X0000295  C0000234   1.000000000000e+00
    X0000295  C0000404   1.000000000000e+00
    X0000295  C0000591   1.000000000000e+00
    X0000295  C0001579   1.000000000000e+00
    MARK      'MARKER'                 'INTEND'
    MARK      'MARKER'                 'INTORG'
    X0000296  C0000236   1.000000000000e+00
    X0000296  C0000389  -1.000000000000e+00
    X0000296  C0000396   1.000000000000e+00
    X0000296  C0000559   1.000000000000e+00
    X0000296  C0001588   1.000000000000e+00
    MARK      'MARKER'                 'INTEND'
    MARK      'MARKER'                 'INTORG'
    X0000297  C0000245   1.000000000000e+00
    X0000297  C0000405   1.000000000000e+00
    X0000297  C0000595   1.000000000000e+00
    X0000297  C0001627   1.000000000000e+00
    MARK      'MARKER'                 'INTEND'
    MARK      'MARKER'                 'INTORG'
    X0000298  C0000237   1.000000000000e+00
    X0000298  C0000390  -1.000000000000e+00
    X0000298  C0000397   1.000000000000e+00
    X0000298  C0000563   1.000000000000e+00
    X0000298  C0001592   1.000000000000e+00
    MARK      'MARKER'                 'INTEND'
    MARK      'MARKER'                 'INTORG'
    X0000299  C0000238   1.000000000000e+00
    X0000299  C0000391  -1.000000000000e+00
    X0000299  C0000398   1.000000000000e+00
    X0000299  C0000567   1.000000000000e+00
    X0000299  C0001596   1.000000000000e+00
    MARK      'MARKER'                 'INTEND'
    MARK      'MARKER'                 'INTORG'
    X0000300  C0000239   1.000000000000e+00
    X0000300  C0000392  -1.000000000000e+00
    X0000300  C0000399   1.000000000000e+00
    X0000300  C0000571   1.000000000000e+00
    X0000300  C0001600   1.000000000000e+00
    MARK      'MARKER'                 'INTEND'
    MARK      'MARKER'                 'INTORG'
    X0000301  C0000240   1.000000000000e+00
    X0000301  C0000393  -1.000000000000e+00
    X0000301  C0000400   1.000000000000e+00
    X0000301  C0000575   1.000000000000e+00
    X0000301  C0001604   1.000000000000e+00
    MARK      'MARKER'                 'INTEND'
    MARK      'MARKER'                 'INTORG'
    X0000302  C0000241   1.000000000000e+00
    X0000302  C0000394  -1.000000000000e+00
    X0000302  C0000401   1.000000000000e+00
    X0000302  C0000579   1.000000000000e+00
    X0000302  C0001608   1.000000000000e+00
    MARK      'MARKER'                 'INTEND'
    MARK      'MARKER'                 'INTORG'
    X0000303  C0000242   1.000000000000e+00
    X0000303  C0000395  -1.000000000000e+00
    X0000303  C0000402   1.000000000000e+00
    X0000303  C0000583   1.000000000000e+00
    X0000303  C0001612   1.000000000000e+00
    MARK      'MARKER'                 'INTEND'
    MARK      'MARKER'                 'INTORG'
    X0000304  C0000243   1.000000000000e+00
    X0000304  C0000403   1.000000000000e+00
    X0000304  C0000587   1.000000000000e+00
    X0000304  C0001617   1.000000000000e+00
    MARK      'MARKER'                 'INTEND'
    MARK      'MARKER'                 'INTORG'
    X0000305  C0000244   1.000000000000e+00
    X0000305  C0000404   1.000000000000e+00
    X0000305  C0000591   1.000000000000e+00
    X0000305  C0001622   1.000000000000e+00
    MARK      'MARKER'                 'INTEND'
    MARK      'MARKER'                 'INTORG'
    X0000306  C0000246   1.000000000000e+00
    X0000306  C0000396   1.000000000000e+00
    X0000306  C0000409  -1.000000000000e+00
    X0000306  C0000559   1.000000000000e+00
    X0000306  C0001631   1.000000000000e+00
    MARK      'MARKER'                 'INTEND'
    MARK      'MARKER'                 'INTORG'
    X0000307  C0000255   1.000000000000e+00
    X0000307  C0000405   1.000000000000e+00
    X0000307  C0000595   1.000000000000e+00
    X0000307  C0001670   1.000000000000e+00
    MARK      'MARKER'                 'INTEND'
    MARK      'MARKER'                 'INTORG'
    X0000308  C0000247   1.000000000000e+00
    X0000308  C0000397   1.000000000000e+00
    X0000308  C0000410  -1.000000000000e+00
    X0000308  C0000563   1.000000000000e+00
    X0000308  C0001635   1.000000000000e+00
    MARK      'MARKER'                 'INTEND'
    MARK      'MARKER'                 'INTORG'
    X0000309  C0000248   1.000000000000e+00
    X0000309  C0000398   1.000000000000e+00
    X0000309  C0000411  -1.000000000000e+00
    X0000309  C0000567   1.000000000000e+00
    X0000309  C0001639   1.000000000000e+00
    MARK      'MARKER'                 'INTEND'
    MARK      'MARKER'                 'INTORG'
    X0000310  C0000249   1.000000000000e+00
    X0000310  C0000399   1.000000000000e+00
    X0000310  C0000412  -1.000000000000e+00
    X0000310  C0000571   1.000000000000e+00
    X0000310  C0001643   1.000000000000e+00
    MARK      'MARKER'                 'INTEND'
    MARK      'MARKER'                 'INTORG'
    X0000311  C0000250   1.000000000000e+00
    X0000311  C0000400   1.000000000000e+00
    X0000311  C0000413  -1.000000000000e+00
    X0000311  C0000575   1.000000000000e+00
    X0000311  C0001647   1.000000000000e+00
    MARK      'MARKER'                 'INTEND'
    MARK      'MARKER'                 'INTORG'
    X0000312  C0000251   1.000000000000e+00
    X0000312  C0000401   1.000000000000e+00
    X0000312  C0000414  -1.000000000000e+00
    X0000312  C0000579   1.000000000000e+00
    X0000312  C0001651   1.000000000000e+00
    MARK      'MARKER'                 'INTEND'
    MARK      'MARKER'                 'INTORG'
    X0000313  C0000252   1.000000000000e+00
    X0000313  C0000402   1.000000000000e+00
    X0000313  C0000415  -1.000000000000e+00
    X0000313  C0000583   1.000000000000e+00
    X0000313  C0001655   1.000000000000e+00
    MARK      'MARKER'                 'INTEND'
    MARK      'MARKER'                 'INTORG'
    X0000314  C0000253   1.000000000000e+00
    X0000314  C0000403   1.000000000000e+00
    X0000314  C0000587   1.000000000000e+00
    X0000314  C0001660   1.000000000000e+00
    MARK      'MARKER'                 'INTEND'
    MARK      'MARKER'                 'INTORG'
    X0000315  C0000254   1.000000000000e+00
    X0000315  C0000404   1.000000000000e+00
    X0000315  C0000591   1.000000000000e+00
    X0000315  C0001665   1.000000000000e+00
    MARK      'MARKER'                 'INTEND'
    MARK      'MARKER'                 'INTORG'
    X0000316  C0000256   1.000000000000e+00
    X0000316  C0000396   1.000000000000e+00
    X0000316  C0000418  -1.000000000000e+00
    X0000316  C0000559   1.000000000000e+00
    X0000316  C0001674   1.000000000000e+00
    MARK      'MARKER'                 'INTEND'
    MARK      'MARKER'                 'INTORG'
    X0000317  C0000265   1.000000000000e+00
    X0000317  C0000405   1.000000000000e+00
    X0000317  C0000595   1.000000000000e+00
    X0000317  C0001713   1.000000000000e+00
    MARK      'MARKER'                 'INTEND'
    MARK      'MARKER'                 'INTORG'
    X0000318  C0000257   1.000000000000e+00
    X0000318  C0000397   1.000000000000e+00
    X0000318  C0000419  -1.000000000000e+00
    X0000318  C0000563   1.000000000000e+00
    X0000318  C0001678   1.000000000000e+00
    MARK      'MARKER'                 'INTEND'
    MARK      'MARKER'                 'INTORG'
    X0000319  C0000258   1.000000000000e+00
    X0000319  C0000398   1.000000000000e+00
    X0000319  C0000420  -1.000000000000e+00
    X0000319  C0000567   1.000000000000e+00
    X0000319  C0001682   1.000000000000e+00
    MARK      'MARKER'                 'INTEND'
    MARK      'MARKER'                 'INTORG'
    X0000320  C0000259   1.000000000000e+00
    X0000320  C0000399   1.000000000000e+00
    X0000320  C0000421  -1.000000000000e+00
    X0000320  C0000571   1.000000000000e+00
    X0000320  C0001686   1.000000000000e+00
    MARK      'MARKER'                 'INTEND'
    MARK      'MARKER'                 'INTORG'
    X0000321  C0000260   1.000000000000e+00
    X0000321  C0000400   1.000000000000e+00
    X0000321  C0000422  -1.000000000000e+00
    X0000321  C0000575   1.000000000000e+00
    X0000321  C0001690   1.000000000000e+00
    MARK      'MARKER'                 'INTEND'
    MARK      'MARKER'                 'INTORG'
    X0000322  C0000261   1.000000000000e+00
    X0000322  C0000401   1.000000000000e+00
    X0000322  C0000423  -1.000000000000e+00
    X0000322  C0000579   1.000000000000e+00
    X0000322  C0001694   1.000000000000e+00
    MARK      'MARKER'                 'INTEND'
    MARK      'MARKER'                 'INTORG'
    X0000323  C0000262   1.000000000000e+00
    X0000323  C0000402   1.000000000000e+00
    X0000323  C0000424  -1.000000000000e+00
    X0000323  C0000583   1.000000000000e+00
    X0000323  C0001698   1.000000000000e+00
    MARK      'MARKER'                 'INTEND'
    MARK      'MARKER'                 'INTORG'
    X0000324  C0000263   1.000000000000e+00
    X0000324  C0000403   1.000000000000e+00
    X0000324  C0000425  -1.000000000000e+00
    X0000324  C0000587   1.000000000000e+00
    X0000324  C0001703   1.000000000000e+00
    MARK      'MARKER'                 'INTEND'
    MARK      'MARKER'                 'INTORG'
    X0000325  C0000264   1.000000000000e+00
    X0000325  C0000404   1.000000000000e+00
    X0000325  C0000591   1.000000000000e+00
    X0000325  C0001708   1.000000000000e+00
    MARK      'MARKER'                 'INTEND'
    MARK      'MARKER'                 'INTORG'
    X0000326  C0000266   1.000000000000e+00
    X0000326  C0000369  -1.000000000000e+00
    X0000326  C0000406   1.000000000000e+00
    X0000326  C0000599   1.000000000000e+00
    X0000326  C0001717   1.000000000000e+00
    MARK      'MARKER'                 'INTEND'
    MARK      'MARKER'                 'INTORG'
    X0000327  C0000275   1.000000000000e+00
    X0000327  C0000415   1.000000000000e+00
    X0000327  C0000635   1.000000000000e+00
    X0000327  C0001756   1.000000000000e+00
    MARK      'MARKER'                 'INTEND'
    MARK      'MARKER'                 'INTORG'
    X0000328  C0000267   1.000000000000e+00
    X0000328  C0000370  -1.000000000000e+00
    X0000328  C0000407   1.000000000000e+00
    X0000328  C0000603   1.000000000000e+00
    X0000328  C0001721   1.000000000000e+00
    MARK      'MARKER'                 'INTEND'
    MARK      'MARKER'                 'INTORG'
    X0000329  C0000268   1.000000000000e+00
    X0000329  C0000371  -1.000000000000e+00
    X0000329  C0000408   1.000000000000e+00
    X0000329  C0000607   1.000000000000e+00
    X0000329  C0001725   1.000000000000e+00
    MARK      'MARKER'                 'INTEND'
    MARK      'MARKER'                 'INTORG'
    X0000330  C0000269   1.000000000000e+00
    X0000330  C0000372  -1.000000000000e+00
    X0000330  C0000409   1.000000000000e+00
    X0000330  C0000611   1.000000000000e+00
    X0000330  C0001729   1.000000000000e+00
    MARK      'MARKER'                 'INTEND'
    MARK      'MARKER'                 'INTORG'
    X0000331  C0000270   1.000000000000e+00
    X0000331  C0000373  -1.000000000000e+00
    X0000331  C0000410   1.000000000000e+00
    X0000331  C0000615   1.000000000000e+00
    X0000331  C0001733   1.000000000000e+00
    MARK      'MARKER'                 'INTEND'
    MARK      'MARKER'                 'INTORG'
    X0000332  C0000271   1.000000000000e+00
    X0000332  C0000374  -1.000000000000e+00
    X0000332  C0000411   1.000000000000e+00
    X0000332  C0000619   1.000000000000e+00
    X0000332  C0001737   1.000000000000e+00
    MARK      'MARKER'                 'INTEND'
    MARK      'MARKER'                 'INTORG'
    X0000333  C0000272   1.000000000000e+00
    X0000333  C0000375  -1.000000000000e+00
    X0000333  C0000412   1.000000000000e+00
    X0000333  C0000623   1.000000000000e+00
    X0000333  C0001741   1.000000000000e+00
    MARK      'MARKER'                 'INTEND'
    MARK      'MARKER'                 'INTORG'
    X0000334  C0000273   1.000000000000e+00
    X0000334  C0000413   1.000000000000e+00
    X0000334  C0000627   1.000000000000e+00
    X0000334  C0001746   1.000000000000e+00
    MARK      'MARKER'                 'INTEND'
    MARK      'MARKER'                 'INTORG'
    X0000335  C0000274   1.000000000000e+00
    X0000335  C0000414   1.000000000000e+00
    X0000335  C0000631   1.000000000000e+00
    X0000335  C0001751   1.000000000000e+00
    MARK      'MARKER'                 'INTEND'
    MARK      'MARKER'                 'INTORG'
    X0000336  C0000276   1.000000000000e+00
    X0000336  C0000378  -1.000000000000e+00
    X0000336  C0000406   1.000000000000e+00
    X0000336  C0000599   1.000000000000e+00
    X0000336  C0001760   1.000000000000e+00
    MARK      'MARKER'                 'INTEND'
    MARK      'MARKER'                 'INTORG'
    X0000337  C0000285   1.000000000000e+00
    X0000337  C0000415   1.000000000000e+00
    X0000337  C0000635   1.000000000000e+00
    X0000337  C0001799   1.000000000000e+00
    MARK      'MARKER'                 'INTEND'
    MARK      'MARKER'                 'INTORG'
    X0000338  C0000277   1.000000000000e+00
    X0000338  C0000379  -1.000000000000e+00
    X0000338  C0000407   1.000000000000e+00
    X0000338  C0000603   1.000000000000e+00
    X0000338  C0001764   1.000000000000e+00
    MARK      'MARKER'                 'INTEND'
    MARK      'MARKER'                 'INTORG'
    X0000339  C0000278   1.000000000000e+00
    X0000339  C0000380  -1.000000000000e+00
    X0000339  C0000408   1.000000000000e+00
    X0000339  C0000607   1.000000000000e+00
    X0000339  C0001768   1.000000000000e+00
    MARK      'MARKER'                 'INTEND'
    MARK      'MARKER'                 'INTORG'
    X0000340  C0000279   1.000000000000e+00
    X0000340  C0000381  -1.000000000000e+00
    X0000340  C0000409   1.000000000000e+00
    X0000340  C0000611   1.000000000000e+00
    X0000340  C0001772   1.000000000000e+00
    MARK      'MARKER'                 'INTEND'
    MARK      'MARKER'                 'INTORG'
    X0000341  C0000280   1.000000000000e+00
    X0000341  C0000382  -1.000000000000e+00
    X0000341  C0000410   1.000000000000e+00
    X0000341  C0000615   1.000000000000e+00
    X0000341  C0001776   1.000000000000e+00
    MARK      'MARKER'                 'INTEND'
    MARK      'MARKER'                 'INTORG'
    X0000342  C0000281   1.000000000000e+00
    X0000342  C0000383  -1.000000000000e+00
    X0000342  C0000411   1.000000000000e+00
    X0000342  C0000619   1.000000000000e+00
    X0000342  C0001780   1.000000000000e+00
    MARK      'MARKER'                 'INTEND'
    MARK      'MARKER'                 'INTORG'
    X0000343  C0000282   1.000000000000e+00
    X0000343  C0000384  -1.000000000000e+00
    X0000343  C0000412   1.000000000000e+00
    X0000343  C0000623   1.000000000000e+00
    X0000343  C0001784   1.000000000000e+00
    MARK      'MARKER'                 'INTEND'
    MARK      'MARKER'                 'INTORG'
    X0000344  C0000283   1.000000000000e+00
    X0000344  C0000385  -1.000000000000e+00
    X0000344  C0000413   1.000000000000e+00
    X0000344  C0000627   1.000000000000e+00
    X0000344  C0001789   1.000000000000e+00
    MARK      'MARKER'                 'INTEND'
    MARK      'MARKER'                 'INTORG'
    X0000345  C0000284   1.000000000000e+00
    X0000345  C0000414   1.000000000000e+00
    X0000345  C0000631   1.000000000000e+00
    X0000345  C0001794   1.000000000000e+00
    MARK      'MARKER'                 'INTEND'
    MARK      'MARKER'                 'INTORG'
    X0000346  C0000286   1.000000000000e+00
    X0000346  C0000388  -1.000000000000e+00
    X0000346  C0000406   1.000000000000e+00
    X0000346  C0000599   1.000000000000e+00
    X0000346  C0001803   1.000000000000e+00
    MARK      'MARKER'                 'INTEND'
    MARK      'MARKER'                 'INTORG'
    X0000347  C0000295   1.000000000000e+00
    X0000347  C0000415   1.000000000000e+00
    X0000347  C0000635   1.000000000000e+00
    X0000347  C0001842   1.000000000000e+00
    MARK      'MARKER'                 'INTEND'
    MARK      'MARKER'                 'INTORG'
    X0000348  C0000287   1.000000000000e+00
    X0000348  C0000389  -1.000000000000e+00
    X0000348  C0000407   1.000000000000e+00
    X0000348  C0000603   1.000000000000e+00
    X0000348  C0001807   1.000000000000e+00
    MARK      'MARKER'                 'INTEND'
    MARK      'MARKER'                 'INTORG'
    X0000349  C0000288   1.000000000000e+00
    X0000349  C0000390  -1.000000000000e+00
    X0000349  C0000408   1.000000000000e+00
    X0000349  C0000607   1.000000000000e+00
    X0000349  C0001811   1.000000000000e+00
    MARK      'MARKER'                 'INTEND'
    MARK      'MARKER'                 'INTORG'
    X0000350  C0000289   1.000000000000e+00
    X0000350  C0000391  -1.000000000000e+00
    X0000350  C0000409   1.000000000000e+00
    X0000350  C0000611   1.000000000000e+00
    X0000350  C0001815   1.000000000000e+00
    MARK      'MARKER'                 'INTEND'
    MARK      'MARKER'                 'INTORG'
    X0000351  C0000290   1.000000000000e+00
    X0000351  C0000392  -1.000000000000e+00
    X0000351  C0000410   1.000000000000e+00
    X0000351  C0000615   1.000000000000e+00
    X0000351  C0001819   1.000000000000e+00
    MARK      'MARKER'                 'INTEND'
    MARK      'MARKER'                 'INTORG'
    X0000352  C0000291   1.000000000000e+00
    X0000352  C0000393  -1.000000000000e+00
    X0000352  C0000411   1.000000000000e+00
    X0000352  C0000619   1.000000000000e+00
    X0000352  C0001823   1.000000000000e+00
    MARK      'MARKER'                 'INTEND'
    MARK      'MARKER'                 'INTORG'
    X0000353  C0000292   1.000000000000e+00
    X0000353  C0000394  -1.000000000000e+00
    X0000353  C0000412   1.000000000000e+00
    X0000353  C0000623   1.000000000000e+00
    X0000353  C0001827   1.000000000000e+00
    MARK      'MARKER'                 'INTEND'
    MARK      'MARKER'                 'INTORG'
    X0000354  C0000293   1.000000000000e+00
    X0000354  C0000395  -1.000000000000e+00
    X0000354  C0000413   1.000000000000e+00
    X0000354  C0000627   1.000000000000e+00
    X0000354  C0001832   1.000000000000e+00
    MARK      'MARKER'                 'INTEND'
    MARK      'MARKER'                 'INTORG'
    X0000355  C0000294   1.000000000000e+00
    X0000355  C0000414   1.000000000000e+00
    X0000355  C0000631   1.000000000000e+00
    X0000355  C0001837   1.000000000000e+00
    MARK      'MARKER'                 'INTEND'
    MARK      'MARKER'                 'INTORG'
    X0000356  C0000296   1.000000000000e+00
    X0000356  C0000398  -1.000000000000e+00
    X0000356  C0000406   1.000000000000e+00
    X0000356  C0000599   1.000000000000e+00
    X0000356  C0001846   1.000000000000e+00
    MARK      'MARKER'                 'INTEND'
    MARK      'MARKER'                 'INTORG'
    X0000357  C0000305   1.000000000000e+00
    X0000357  C0000415   1.000000000000e+00
    X0000357  C0000635   1.000000000000e+00
    X0000357  C0001885   1.000000000000e+00
    MARK      'MARKER'                 'INTEND'
    MARK      'MARKER'                 'INTORG'
    X0000358  C0000297   1.000000000000e+00
    X0000358  C0000399  -1.000000000000e+00
    X0000358  C0000407   1.000000000000e+00
    X0000358  C0000603   1.000000000000e+00
    X0000358  C0001850   1.000000000000e+00
    MARK      'MARKER'                 'INTEND'
    MARK      'MARKER'                 'INTORG'
    X0000359  C0000298   1.000000000000e+00
    X0000359  C0000400  -1.000000000000e+00
    X0000359  C0000408   1.000000000000e+00
    X0000359  C0000607   1.000000000000e+00
    X0000359  C0001854   1.000000000000e+00
    MARK      'MARKER'                 'INTEND'
    MARK      'MARKER'                 'INTORG'
    X0000360  C0000299   1.000000000000e+00
    X0000360  C0000401  -1.000000000000e+00
    X0000360  C0000409   1.000000000000e+00
    X0000360  C0000611   1.000000000000e+00
    X0000360  C0001858   1.000000000000e+00
    MARK      'MARKER'                 'INTEND'
    MARK      'MARKER'                 'INTORG'
    X0000361  C0000300   1.000000000000e+00
    X0000361  C0000402  -1.000000000000e+00
    X0000361  C0000410   1.000000000000e+00
    X0000361  C0000615   1.000000000000e+00
    X0000361  C0001862   1.000000000000e+00
    MARK      'MARKER'                 'INTEND'
    MARK      'MARKER'                 'INTORG'
    X0000362  C0000301   1.000000000000e+00
    X0000362  C0000403  -1.000000000000e+00
    X0000362  C0000411   1.000000000000e+00
    X0000362  C0000619   1.000000000000e+00
    X0000362  C0001866   1.000000000000e+00
    MARK      'MARKER'                 'INTEND'
    MARK      'MARKER'                 'INTORG'
    X0000363  C0000302   1.000000000000e+00
    X0000363  C0000404  -1.000000000000e+00
    X0000363  C0000412   1.000000000000e+00
    X0000363  C0000623   1.000000000000e+00
    X0000363  C0001870   1.000000000000e+00
    MARK      'MARKER'                 'INTEND'
    MARK      'MARKER'                 'INTORG'
    X0000364  C0000303   1.000000000000e+00
    X0000364  C0000405  -1.000000000000e+00
    X0000364  C0000413   1.000000000000e+00
    X0000364  C0000627   1.000000000000e+00
    X0000364  C0001875   1.000000000000e+00
    MARK      'MARKER'                 'INTEND'
    MARK      'MARKER'                 'INTORG'
    X0000365  C0000304   1.000000000000e+00
    X0000365  C0000414   1.000000000000e+00
    X0000365  C0000631   1.000000000000e+00
    X0000365  C0001880   1.000000000000e+00
    MARK      'MARKER'                 'INTEND'
    MARK      'MARKER'                 'INTORG'
    X0000366  C0000306   1.000000000000e+00
    X0000366  C0000406   1.000000000000e+00
    X0000366  C0000418  -1.000000000000e+00
    X0000366  C0000599   1.000000000000e+00
    X0000366  C0001889   1.000000000000e+00
    MARK      'MARKER'                 'INTEND'
    MARK      'MARKER'                 'INTORG'
    X0000367  C0000315   1.000000000000e+00
    X0000367  C0000415   1.000000000000e+00
    X0000367  C0000635   1.000000000000e+00
    X0000367  C0001928   1.000000000000e+00
    MARK      'MARKER'                 'INTEND'
    MARK      'MARKER'                 'INTORG'
    X0000368  C0000307   1.000000000000e+00
    X0000368  C0000407   1.000000000000e+00
    X0000368  C0000419  -1.000000000000e+00
    X0000368  C0000603   1.000000000000e+00
    X0000368  C0001893   1.000000000000e+00
    MARK      'MARKER'                 'INTEND'
    MARK      'MARKER'                 'INTORG'
    X0000369  C0000308   1.000000000000e+00
    X0000369  C0000408   1.000000000000e+00
    X0000369  C0000420  -1.000000000000e+00
    X0000369  C0000607   1.000000000000e+00
    X0000369  C0001897   1.000000000000e+00
    MARK      'MARKER'                 'INTEND'
    MARK      'MARKER'                 'INTORG'
    X0000370  C0000309   1.000000000000e+00
    X0000370  C0000409   1.000000000000e+00
    X0000370  C0000421  -1.000000000000e+00
    X0000370  C0000611   1.000000000000e+00
    X0000370  C0001901   1.000000000000e+00
    MARK      'MARKER'                 'INTEND'
    MARK      'MARKER'                 'INTORG'
    X0000371  C0000310   1.000000000000e+00
    X0000371  C0000410   1.000000000000e+00
    X0000371  C0000422  -1.000000000000e+00
    X0000371  C0000615   1.000000000000e+00
    X0000371  C0001905   1.000000000000e+00
    MARK      'MARKER'                 'INTEND'
    MARK      'MARKER'                 'INTORG'
    X0000372  C0000311   1.000000000000e+00
    X0000372  C0000411   1.000000000000e+00
    X0000372  C0000423  -1.000000000000e+00
    X0000372  C0000619   1.000000000000e+00
    X0000372  C0001909   1.000000000000e+00
    MARK      'MARKER'                 'INTEND'
    MARK      'MARKER'                 'INTORG'
    X0000373  C0000312   1.000000000000e+00
    X0000373  C0000412   1.000000000000e+00
    X0000373  C0000424  -1.000000000000e+00
    X0000373  C0000623   1.000000000000e+00
    X0000373  C0001913   1.000000000000e+00
    MARK      'MARKER'                 'INTEND'
    MARK      'MARKER'                 'INTORG'
    X0000374  C0000313   1.000000000000e+00
    X0000374  C0000413   1.000000000000e+00
    X0000374  C0000425  -1.000000000000e+00
    X0000374  C0000627   1.000000000000e+00
    X0000374  C0001918   1.000000000000e+00
    MARK      'MARKER'                 'INTEND'
    MARK      'MARKER'                 'INTORG'
    X0000375  C0000314   1.000000000000e+00
    X0000375  C0000414   1.000000000000e+00
    X0000375  C0000631   1.000000000000e+00
    X0000375  C0001923   1.000000000000e+00
    MARK      'MARKER'                 'INTEND'
    MARK      'MARKER'                 'INTORG'
    X0000376  C0000316   1.000000000000e+00
    X0000376  C0000368  -1.000000000000e+00
    X0000376  C0000416   1.000000000000e+00
    X0000376  C0000639   1.000000000000e+00
    X0000376  C0001932   1.000000000000e+00
    MARK      'MARKER'                 'INTEND'
    MARK      'MARKER'                 'INTORG'
    X0000377  C0000325   1.000000000000e+00
    X0000377  C0000425   1.000000000000e+00
    X0000377  C0000675   1.000000000000e+00
    X0000377  C0001971   1.000000000000e+00
    MARK      'MARKER'                 'INTEND'
    MARK      'MARKER'                 'INTORG'
    X0000378  C0000317   1.000000000000e+00
    X0000378  C0000369  -1.000000000000e+00
    X0000378  C0000417   1.000000000000e+00
    X0000378  C0000643   1.000000000000e+00
    X0000378  C0001936   1.000000000000e+00
    MARK      'MARKER'                 'INTEND'
    MARK      'MARKER'                 'INTORG'
    X0000379  C0000318   1.000000000000e+00
    X0000379  C0000370  -1.000000000000e+00
    X0000379  C0000418   1.000000000000e+00
    X0000379  C0000647   1.000000000000e+00
    X0000379  C0001940   1.000000000000e+00
    MARK      'MARKER'                 'INTEND'
    MARK      'MARKER'                 'INTORG'
    X0000380  C0000319   1.000000000000e+00
    X0000380  C0000371  -1.000000000000e+00
    X0000380  C0000419   1.000000000000e+00
    X0000380  C0000651   1.000000000000e+00
    X0000380  C0001944   1.000000000000e+00
    MARK      'MARKER'                 'INTEND'
    MARK      'MARKER'                 'INTORG'
    X0000381  C0000320   1.000000000000e+00
    X0000381  C0000372  -1.000000000000e+00
    X0000381  C0000420   1.000000000000e+00
    X0000381  C0000655   1.000000000000e+00
    X0000381  C0001948   1.000000000000e+00
    MARK      'MARKER'                 'INTEND'
    MARK      'MARKER'                 'INTORG'
    X0000382  C0000321   1.000000000000e+00
    X0000382  C0000373  -1.000000000000e+00
    X0000382  C0000421   1.000000000000e+00
    X0000382  C0000659   1.000000000000e+00
    X0000382  C0001952   1.000000000000e+00
    MARK      'MARKER'                 'INTEND'
    MARK      'MARKER'                 'INTORG'
    X0000383  C0000322   1.000000000000e+00
    X0000383  C0000374  -1.000000000000e+00
    X0000383  C0000422   1.000000000000e+00
    X0000383  C0000663   1.000000000000e+00
    X0000383  C0001956   1.000000000000e+00
    MARK      'MARKER'                 'INTEND'
    MARK      'MARKER'                 'INTORG'
    X0000384  C0000323   1.000000000000e+00
    X0000384  C0000375  -1.000000000000e+00
    X0000384  C0000423   1.000000000000e+00
    X0000384  C0000667   1.000000000000e+00
    X0000384  C0001961   1.000000000000e+00
    MARK      'MARKER'                 'INTEND'
    MARK      'MARKER'                 'INTORG'
    X0000385  C0000324   1.000000000000e+00
    X0000385  C0000424   1.000000000000e+00
    X0000385  C0000671   1.000000000000e+00
    X0000385  C0001966   1.000000000000e+00
    MARK      'MARKER'                 'INTEND'
    MARK      'MARKER'                 'INTORG'
    X0000386  C0000326   1.000000000000e+00
    X0000386  C0000378  -1.000000000000e+00
    X0000386  C0000416   1.000000000000e+00
    X0000386  C0000639   1.000000000000e+00
    X0000386  C0001975   1.000000000000e+00
    MARK      'MARKER'                 'INTEND'
    MARK      'MARKER'                 'INTORG'
    X0000387  C0000335   1.000000000000e+00
    X0000387  C0000425   1.000000000000e+00
    X0000387  C0000675   1.000000000000e+00
    X0000387  C0002014   1.000000000000e+00
    MARK      'MARKER'                 'INTEND'
    MARK      'MARKER'                 'INTORG'
    X0000388  C0000327   1.000000000000e+00
    X0000388  C0000379  -1.000000000000e+00
    X0000388  C0000417   1.000000000000e+00
    X0000388  C0000643   1.000000000000e+00
    X0000388  C0001979   1.000000000000e+00
    MARK      'MARKER'                 'INTEND'
    MARK      'MARKER'                 'INTORG'
    X0000389  C0000328   1.000000000000e+00
    X0000389  C0000380  -1.000000000000e+00
    X0000389  C0000418   1.000000000000e+00
    X0000389  C0000647   1.000000000000e+00
    X0000389  C0001983   1.000000000000e+00
    MARK      'MARKER'                 'INTEND'
    MARK      'MARKER'                 'INTORG'
    X0000390  C0000329   1.000000000000e+00
    X0000390  C0000381  -1.000000000000e+00
    X0000390  C0000419   1.000000000000e+00
    X0000390  C0000651   1.000000000000e+00
    X0000390  C0001987   1.000000000000e+00
    MARK      'MARKER'                 'INTEND'
    MARK      'MARKER'                 'INTORG'
    X0000391  C0000330   1.000000000000e+00
    X0000391  C0000382  -1.000000000000e+00
    X0000391  C0000420   1.000000000000e+00
    X0000391  C0000655   1.000000000000e+00
    X0000391  C0001991   1.000000000000e+00
    MARK      'MARKER'                 'INTEND'
    MARK      'MARKER'                 'INTORG'
    X0000392  C0000331   1.000000000000e+00
    X0000392  C0000383  -1.000000000000e+00
    X0000392  C0000421   1.000000000000e+00
    X0000392  C0000659   1.000000000000e+00
    X0000392  C0001995   1.000000000000e+00
    MARK      'MARKER'                 'INTEND'
    MARK      'MARKER'                 'INTORG'
    X0000393  C0000332   1.000000000000e+00
    X0000393  C0000384  -1.000000000000e+00
    X0000393  C0000422   1.000000000000e+00
    X0000393  C0000663   1.000000000000e+00
    X0000393  C0001999   1.000000000000e+00
    MARK      'MARKER'                 'INTEND'
    MARK      'MARKER'                 'INTORG'
    X0000394  C0000333   1.000000000000e+00
    X0000394  C0000385  -1.000000000000e+00
    X0000394  C0000423   1.000000000000e+00
    X0000394  C0000667   1.000000000000e+00
    X0000394  C0002004   1.000000000000e+00
    MARK      'MARKER'                 'INTEND'
    MARK      'MARKER'                 'INTORG'
    X0000395  C0000334   1.000000000000e+00
    X0000395  C0000424   1.000000000000e+00
    X0000395  C0000671   1.000000000000e+00
    X0000395  C0002009   1.000000000000e+00
    MARK      'MARKER'                 'INTEND'
    MARK      'MARKER'                 'INTORG'
    X0000396  C0000336   1.000000000000e+00
    X0000396  C0000388  -1.000000000000e+00
    X0000396  C0000416   1.000000000000e+00
    X0000396  C0000639   1.000000000000e+00
    X0000396  C0002018   1.000000000000e+00
    MARK      'MARKER'                 'INTEND'
    MARK      'MARKER'                 'INTORG'
    X0000397  C0000345   1.000000000000e+00
    X0000397  C0000425   1.000000000000e+00
    X0000397  C0000675   1.000000000000e+00
    X0000397  C0002057   1.000000000000e+00
    MARK      'MARKER'                 'INTEND'
    MARK      'MARKER'                 'INTORG'
    X0000398  C0000337   1.000000000000e+00
    X0000398  C0000389  -1.000000000000e+00
    X0000398  C0000417   1.000000000000e+00
    X0000398  C0000643   1.000000000000e+00
    X0000398  C0002022   1.000000000000e+00
    MARK      'MARKER'                 'INTEND'
    MARK      'MARKER'                 'INTORG'
    X0000399  C0000338   1.000000000000e+00
    X0000399  C0000390  -1.000000000000e+00
    X0000399  C0000418   1.000000000000e+00
    X0000399  C0000647   1.000000000000e+00
    X0000399  C0002026   1.000000000000e+00
    MARK      'MARKER'                 'INTEND'
    MARK      'MARKER'                 'INTORG'
    X0000400  C0000339   1.000000000000e+00
    X0000400  C0000391  -1.000000000000e+00
    X0000400  C0000419   1.000000000000e+00
    X0000400  C0000651   1.000000000000e+00
    X0000400  C0002030   1.000000000000e+00
    MARK      'MARKER'                 'INTEND'
    MARK      'MARKER'                 'INTORG'
    X0000401  C0000340   1.000000000000e+00
    X0000401  C0000392  -1.000000000000e+00
    X0000401  C0000420   1.000000000000e+00
    X0000401  C0000655   1.000000000000e+00
    X0000401  C0002034   1.000000000000e+00
    MARK      'MARKER'                 'INTEND'
    MARK      'MARKER'                 'INTORG'
    X0000402  C0000341   1.000000000000e+00
    X0000402  C0000393  -1.000000000000e+00
    X0000402  C0000421   1.000000000000e+00
    X0000402  C0000659   1.000000000000e+00
    X0000402  C0002038   1.000000000000e+00
    MARK      'MARKER'                 'INTEND'
    MARK      'MARKER'                 'INTORG'
    X0000403  C0000342   1.000000000000e+00
    X0000403  C0000394  -1.000000000000e+00
    X0000403  C0000422   1.000000000000e+00
    X0000403  C0000663   1.000000000000e+00
    X0000403  C0002042   1.000000000000e+00
    MARK      'MARKER'                 'INTEND'
    MARK      'MARKER'                 'INTORG'
    X0000404  C0000343   1.000000000000e+00
    X0000404  C0000395  -1.000000000000e+00
    X0000404  C0000423   1.000000000000e+00
    X0000404  C0000667   1.000000000000e+00
    X0000404  C0002047   1.000000000000e+00
    MARK      'MARKER'                 'INTEND'
    MARK      'MARKER'                 'INTORG'
    X0000405  C0000344   1.000000000000e+00
    X0000405  C0000424   1.000000000000e+00
    X0000405  C0000671   1.000000000000e+00
    X0000405  C0002052   1.000000000000e+00
    MARK      'MARKER'                 'INTEND'
    MARK      'MARKER'                 'INTORG'
    X0000406  C0000346   1.000000000000e+00
    X0000406  C0000398  -1.000000000000e+00
    X0000406  C0000416   1.000000000000e+00
    X0000406  C0000639   1.000000000000e+00
    X0000406  C0002061   1.000000000000e+00
    MARK      'MARKER'                 'INTEND'
    MARK      'MARKER'                 'INTORG'
    X0000407  C0000355   1.000000000000e+00
    X0000407  C0000425   1.000000000000e+00
    X0000407  C0000675   1.000000000000e+00
    X0000407  C0002100   1.000000000000e+00
    MARK      'MARKER'                 'INTEND'
    MARK      'MARKER'                 'INTORG'
    X0000408  C0000347   1.000000000000e+00
    X0000408  C0000399  -1.000000000000e+00
    X0000408  C0000417   1.000000000000e+00
    X0000408  C0000643   1.000000000000e+00
    X0000408  C0002065   1.000000000000e+00
    MARK      'MARKER'                 'INTEND'
    MARK      'MARKER'                 'INTORG'
    X0000409  C0000348   1.000000000000e+00
    X0000409  C0000400  -1.000000000000e+00
    X0000409  C0000418   1.000000000000e+00
    X0000409  C0000647   1.000000000000e+00
    X0000409  C0002069   1.000000000000e+00
    MARK      'MARKER'                 'INTEND'
    MARK      'MARKER'                 'INTORG'
    X0000410  C0000349   1.000000000000e+00
    X0000410  C0000401  -1.000000000000e+00
    X0000410  C0000419   1.000000000000e+00
    X0000410  C0000651   1.000000000000e+00
    X0000410  C0002073   1.000000000000e+00
    MARK      'MARKER'                 'INTEND'
    MARK      'MARKER'                 'INTORG'
    X0000411  C0000350   1.000000000000e+00
    X0000411  C0000402  -1.000000000000e+00
    X0000411  C0000420   1.000000000000e+00
    X0000411  C0000655   1.000000000000e+00
    X0000411  C0002077   1.000000000000e+00
    MARK      'MARKER'                 'INTEND'
    MARK      'MARKER'                 'INTORG'
    X0000412  C0000351   1.000000000000e+00
    X0000412  C0000403  -1.000000000000e+00
    X0000412  C0000421   1.000000000000e+00
    X0000412  C0000659   1.000000000000e+00
    X0000412  C0002081   1.000000000000e+00
    MARK      'MARKER'                 'INTEND'
    MARK      'MARKER'                 'INTORG'
    X0000413  C0000352   1.000000000000e+00
    X0000413  C0000404  -1.000000000000e+00
    X0000413  C0000422   1.000000000000e+00
    X0000413  C0000663   1.000000000000e+00
    X0000413  C0002085   1.000000000000e+00
    MARK      'MARKER'                 'INTEND'
    MARK      'MARKER'                 'INTORG'
    X0000414  C0000353   1.000000000000e+00
    X0000414  C0000405  -1.000000000000e+00
    X0000414  C0000423   1.000000000000e+00
    X0000414  C0000667   1.000000000000e+00
    X0000414  C0002090   1.000000000000e+00
    MARK      'MARKER'                 'INTEND'
    MARK      'MARKER'                 'INTORG'
    X0000415  C0000354   1.000000000000e+00
    X0000415  C0000424   1.000000000000e+00
    X0000415  C0000671   1.000000000000e+00
    X0000415  C0002095   1.000000000000e+00
    MARK      'MARKER'                 'INTEND'
    MARK      'MARKER'                 'INTORG'
    X0000416  C0000356   1.000000000000e+00
    X0000416  C0000409  -1.000000000000e+00
    X0000416  C0000416   1.000000000000e+00
    X0000416  C0000639   1.000000000000e+00
    X0000416  C0002104   1.000000000000e+00
    MARK      'MARKER'                 'INTEND'
    MARK      'MARKER'                 'INTORG'
    X0000417  C0000365   1.000000000000e+00
    X0000417  C0000425   1.000000000000e+00
    X0000417  C0000675   1.000000000000e+00
    X0000417  C0002143   1.000000000000e+00
    MARK      'MARKER'                 'INTEND'
    MARK      'MARKER'                 'INTORG'
    X0000418  C0000357   1.000000000000e+00
    X0000418  C0000410  -1.000000000000e+00
    X0000418  C0000417   1.000000000000e+00
    X0000418  C0000643   1.000000000000e+00
    X0000418  C0002108   1.000000000000e+00
    MARK      'MARKER'                 'INTEND'
    MARK      'MARKER'                 'INTORG'
    X0000419  C0000358   1.000000000000e+00
    X0000419  C0000411  -1.000000000000e+00
    X0000419  C0000418   1.000000000000e+00
    X0000419  C0000647   1.000000000000e+00
    X0000419  C0002112   1.000000000000e+00
    MARK      'MARKER'                 'INTEND'
    MARK      'MARKER'                 'INTORG'
    X0000420  C0000359   1.000000000000e+00
    X0000420  C0000412  -1.000000000000e+00
    X0000420  C0000419   1.000000000000e+00
    X0000420  C0000651   1.000000000000e+00
    X0000420  C0002116   1.000000000000e+00
    MARK      'MARKER'                 'INTEND'
    MARK      'MARKER'                 'INTORG'
    X0000421  C0000360   1.000000000000e+00
    X0000421  C0000413  -1.000000000000e+00
    X0000421  C0000420   1.000000000000e+00
    X0000421  C0000655   1.000000000000e+00
    X0000421  C0002120   1.000000000000e+00
    MARK      'MARKER'                 'INTEND'
    MARK      'MARKER'                 'INTORG'
    X0000422  C0000361   1.000000000000e+00
    X0000422  C0000414  -1.000000000000e+00
    X0000422  C0000421   1.000000000000e+00
    X0000422  C0000659   1.000000000000e+00
    X0000422  C0002124   1.000000000000e+00
    MARK      'MARKER'                 'INTEND'
    MARK      'MARKER'                 'INTORG'
    X0000423  C0000362   1.000000000000e+00
    X0000423  C0000415  -1.000000000000e+00
    X0000423  C0000422   1.000000000000e+00
    X0000423  C0000663   1.000000000000e+00
    X0000423  C0002128   1.000000000000e+00
    MARK      'MARKER'                 'INTEND'
    MARK      'MARKER'                 'INTORG'
    X0000424  C0000363   1.000000000000e+00
    X0000424  C0000423   1.000000000000e+00
    X0000424  C0000667   1.000000000000e+00
    X0000424  C0002133   1.000000000000e+00
    MARK      'MARKER'                 'INTEND'
    MARK      'MARKER'                 'INTORG'
    X0000425  C0000364   1.000000000000e+00
    X0000425  C0000424   1.000000000000e+00
    X0000425  C0000671   1.000000000000e+00
    X0000425  C0002138   1.000000000000e+00
    MARK      'MARKER'                 'INTEND'
    X0000426  C0000436   1.000000000000e+00
    X0000426  OBJ        1.500000000000e+03
    X0000427  C0000472   1.000000000000e+00
    X0000427  OBJ        1.500000000000e+03
    X0000428  C0000440   1.000000000000e+00
    X0000428  OBJ        1.500000000000e+03
    X0000429  C0000444   1.000000000000e+00
    X0000429  OBJ        1.500000000000e+03
    X0000430  C0000448   1.000000000000e+00
    X0000430  OBJ        1.500000000000e+03
    X0000431  C0000452   1.000000000000e+00
    X0000431  OBJ        1.500000000000e+03
    X0000432  C0000456   1.000000000000e+00
    X0000432  OBJ        1.500000000000e+03
    X0000433  C0000460   1.000000000000e+00
    X0000433  OBJ        1.500000000000e+03
    X0000434  C0000464   1.000000000000e+00
    X0000434  OBJ        1.500000000000e+03
    X0000435  C0000468   1.000000000000e+00
    X0000435  OBJ        1.500000000000e+03
    X0000436  C0000476   1.000000000000e+00
    X0000436  OBJ        1.500000000000e+03
    X0000437  C0000512   1.000000000000e+00
    X0000437  OBJ        1.500000000000e+03
    X0000438  C0000480   1.000000000000e+00
    X0000438  OBJ        1.500000000000e+03
    X0000439  C0000484   1.000000000000e+00
    X0000439  OBJ        1.500000000000e+03
    X0000440  C0000488   1.000000000000e+00
    X0000440  OBJ        1.500000000000e+03
    X0000441  C0000492   1.000000000000e+00
    X0000441  OBJ        1.500000000000e+03
    X0000442  C0000496   1.000000000000e+00
    X0000442  OBJ        1.500000000000e+03
    X0000443  C0000500   1.000000000000e+00
    X0000443  OBJ        1.500000000000e+03
    X0000444  C0000504   1.000000000000e+00
    X0000444  OBJ        1.500000000000e+03
    X0000445  C0000508   1.000000000000e+00
    X0000445  OBJ        1.500000000000e+03
    X0000446  C0000516   1.000000000000e+00
    X0000446  OBJ        1.500000000000e+03
    X0000447  C0000552   1.000000000000e+00
    X0000447  OBJ        1.500000000000e+03
    X0000448  C0000520   1.000000000000e+00
    X0000448  OBJ        1.500000000000e+03
    X0000449  C0000524   1.000000000000e+00
    X0000449  OBJ        1.500000000000e+03
    X0000450  C0000528   1.000000000000e+00
    X0000450  OBJ        1.500000000000e+03
    X0000451  C0000532   1.000000000000e+00
    X0000451  OBJ        1.500000000000e+03
    X0000452  C0000536   1.000000000000e+00
    X0000452  OBJ        1.500000000000e+03
    X0000453  C0000540   1.000000000000e+00
    X0000453  OBJ        1.500000000000e+03
    X0000454  C0000544   1.000000000000e+00
    X0000454  OBJ        1.500000000000e+03
    X0000455  C0000548   1.000000000000e+00
    X0000455  OBJ        1.500000000000e+03
    X0000456  C0000556   1.000000000000e+00
    X0000456  OBJ        1.500000000000e+03
    X0000457  C0000592   1.000000000000e+00
    X0000457  OBJ        1.500000000000e+03
    X0000458  C0000560   1.000000000000e+00
    X0000458  OBJ        1.500000000000e+03
    X0000459  C0000564   1.000000000000e+00
    X0000459  OBJ        1.500000000000e+03
    X0000460  C0000568   1.000000000000e+00
    X0000460  OBJ        1.500000000000e+03
    X0000461  C0000572   1.000000000000e+00
    X0000461  OBJ        1.500000000000e+03
    X0000462  C0000576   1.000000000000e+00
    X0000462  OBJ        1.500000000000e+03
    X0000463  C0000580   1.000000000000e+00
    X0000463  OBJ        1.500000000000e+03
    X0000464  C0000584   1.000000000000e+00
    X0000464  OBJ        1.500000000000e+03
    X0000465  C0000588   1.000000000000e+00
    X0000465  OBJ        1.500000000000e+03
    X0000466  C0000596   1.000000000000e+00
    X0000466  OBJ        1.500000000000e+03
    X0000467  C0000632   1.000000000000e+00
    X0000467  OBJ        1.500000000000e+03
    X0000468  C0000600   1.000000000000e+00
    X0000468  OBJ        1.500000000000e+03
    X0000469  C0000604   1.000000000000e+00
    X0000469  OBJ        1.500000000000e+03
    X0000470  C0000608   1.000000000000e+00
    X0000470  OBJ        1.500000000000e+03
    X0000471  C0000612   1.000000000000e+00
    X0000471  OBJ        1.500000000000e+03
    X0000472  C0000616   1.000000000000e+00
    X0000472  OBJ        1.500000000000e+03
    X0000473  C0000620   1.000000000000e+00
    X0000473  OBJ        1.500000000000e+03
    X0000474  C0000624   1.000000000000e+00
    X0000474  OBJ        1.500000000000e+03
    X0000475  C0000628   1.000000000000e+00
    X0000475  OBJ        1.500000000000e+03
    X0000476  C0000636   1.000000000000e+00
    X0000476  OBJ        1.500000000000e+03
    X0000477  C0000672   1.000000000000e+00
    X0000477  OBJ        1.500000000000e+03
    X0000478  C0000640   1.000000000000e+00
    X0000478  OBJ        1.500000000000e+03
    X0000479  C0000644   1.000000000000e+00
    X0000479  OBJ        1.500000000000e+03
    X0000480  C0000648   1.000000000000e+00
    X0000480  OBJ        1.500000000000e+03
    X0000481  C0000652   1.000000000000e+00
    X0000481  OBJ        1.500000000000e+03
    X0000482  C0000656   1.000000000000e+00
    X0000482  OBJ        1.500000000000e+03
    X0000483  C0000660   1.000000000000e+00
    X0000483  OBJ        1.500000000000e+03
    X0000484  C0000664   1.000000000000e+00
    X0000484  OBJ        1.500000000000e+03
    X0000485  C0000668   1.000000000000e+00
    X0000485  OBJ        1.500000000000e+03
    X0000486  C0000437   1.000000000000e+00
    X0000486  OBJ        1.000000000000e-01
    X0000487  C0000473   1.000000000000e+00
    X0000487  OBJ        1.000000000000e-01
    X0000488  C0000441   1.000000000000e+00
    X0000488  OBJ        1.000000000000e-01
    X0000489  C0000445   1.000000000000e+00
    X0000489  OBJ        1.000000000000e-01
    X0000490  C0000449   1.000000000000e+00
    X0000490  OBJ        1.000000000000e-01
    X0000491  C0000453   1.000000000000e+00
    X0000491  OBJ        1.000000000000e-01
    X0000492  C0000457   1.000000000000e+00
    X0000492  OBJ        1.000000000000e-01
    X0000493  C0000461   1.000000000000e+00
    X0000493  OBJ        1.000000000000e-01
    X0000494  C0000465   1.000000000000e+00
    X0000494  OBJ        1.000000000000e-01
    X0000495  C0000469   1.000000000000e+00
    X0000495  OBJ        1.000000000000e-01
    X0000496  C0000477   1.000000000000e+00
    X0000496  OBJ        1.000000000000e-01
    X0000497  C0000513   1.000000000000e+00
    X0000497  OBJ        1.000000000000e-01
    X0000498  C0000481   1.000000000000e+00
    X0000498  OBJ        1.000000000000e-01
    X0000499  C0000485   1.000000000000e+00
    X0000499  OBJ        1.000000000000e-01
    X0000500  C0000489   1.000000000000e+00
    X0000500  OBJ        1.000000000000e-01
    X0000501  C0000493   1.000000000000e+00
    X0000501  OBJ        1.000000000000e-01
    X0000502  C0000497   1.000000000000e+00
    X0000502  OBJ        1.000000000000e-01
    X0000503  C0000501   1.000000000000e+00
    X0000503  OBJ        1.000000000000e-01
    X0000504  C0000505   1.000000000000e+00
    X0000504  OBJ        1.000000000000e-01
    X0000505  C0000509   1.000000000000e+00
    X0000505  OBJ        1.000000000000e-01
    X0000506  C0000517   1.000000000000e+00
    X0000506  OBJ        1.000000000000e-01
    X0000507  C0000553   1.000000000000e+00
    X0000507  OBJ        1.000000000000e-01
    X0000508  C0000521   1.000000000000e+00
    X0000508  OBJ        1.000000000000e-01
    X0000509  C0000525   1.000000000000e+00
    X0000509  OBJ        1.000000000000e-01
    X0000510  C0000529   1.000000000000e+00
    X0000510  OBJ        1.000000000000e-01
    X0000511  C0000533   1.000000000000e+00
    X0000511  OBJ        1.000000000000e-01
    X0000512  C0000537   1.000000000000e+00
    X0000512  OBJ        1.000000000000e-01
    X0000513  C0000541   1.000000000000e+00
    X0000513  OBJ        1.000000000000e-01
    X0000514  C0000545   1.000000000000e+00
    X0000514  OBJ        1.000000000000e-01
    X0000515  C0000549   1.000000000000e+00
    X0000515  OBJ        1.000000000000e-01
    X0000516  C0000557   1.000000000000e+00
    X0000516  OBJ        1.000000000000e-01
    X0000517  C0000593   1.000000000000e+00
    X0000517  OBJ        1.000000000000e-01
    X0000518  C0000561   1.000000000000e+00
    X0000518  OBJ        1.000000000000e-01
    X0000519  C0000565   1.000000000000e+00
    X0000519  OBJ        1.000000000000e-01
    X0000520  C0000569   1.000000000000e+00
    X0000520  OBJ        1.000000000000e-01
    X0000521  C0000573   1.000000000000e+00
    X0000521  OBJ        1.000000000000e-01
    X0000522  C0000577   1.000000000000e+00
    X0000522  OBJ        1.000000000000e-01
    X0000523  C0000581   1.000000000000e+00
    X0000523  OBJ        1.000000000000e-01
    X0000524  C0000585   1.000000000000e+00
    X0000524  OBJ        1.000000000000e-01
    X0000525  C0000589   1.000000000000e+00
    X0000525  OBJ        1.000000000000e-01
    X0000526  C0000597   1.000000000000e+00
    X0000526  OBJ        1.000000000000e-01
    X0000527  C0000633   1.000000000000e+00
    X0000527  OBJ        1.000000000000e-01
    X0000528  C0000601   1.000000000000e+00
    X0000528  OBJ        1.000000000000e-01
    X0000529  C0000605   1.000000000000e+00
    X0000529  OBJ        1.000000000000e-01
    X0000530  C0000609   1.000000000000e+00
    X0000530  OBJ        1.000000000000e-01
    X0000531  C0000613   1.000000000000e+00
    X0000531  OBJ        1.000000000000e-01
    X0000532  C0000617   1.000000000000e+00
    X0000532  OBJ        1.000000000000e-01
    X0000533  C0000621   1.000000000000e+00
    X0000533  OBJ        1.000000000000e-01
    X0000534  C0000625   1.000000000000e+00
    X0000534  OBJ        1.000000000000e-01
    X0000535  C0000629   1.000000000000e+00
    X0000535  OBJ        1.000000000000e-01
    X0000536  C0000637   1.000000000000e+00
    X0000536  OBJ        1.000000000000e-01
    X0000537  C0000673   1.000000000000e+00
    X0000537  OBJ        1.000000000000e-01
    X0000538  C0000641   1.000000000000e+00
    X0000538  OBJ        1.000000000000e-01
    X0000539  C0000645   1.000000000000e+00
    X0000539  OBJ        1.000000000000e-01
    X0000540  C0000649   1.000000000000e+00
    X0000540  OBJ        1.000000000000e-01
    X0000541  C0000653   1.000000000000e+00
    X0000541  OBJ        1.000000000000e-01
    X0000542  C0000657   1.000000000000e+00
    X0000542  OBJ        1.000000000000e-01
    X0000543  C0000661   1.000000000000e+00
    X0000543  OBJ        1.000000000000e-01
    X0000544  C0000665   1.000000000000e+00
    X0000544  OBJ        1.000000000000e-01
    X0000545  C0000669   1.000000000000e+00
    X0000545  OBJ        1.000000000000e-01
    MARK      'MARKER'                 'INTORG'
    X0000546  C0000677  -1.600000000000e+02
    X0000546  C0000678  -1.000000000000e+00
    X0000546  OBJ        2.000000000000e+03
    MARK      'MARKER'                 'INTEND'
    MARK      'MARKER'                 'INTORG'
    X0000547  C0000704  -1.600000000000e+02
    X0000547  C0000705  -1.000000000000e+00
    X0000547  OBJ        2.000000000000e+03
    MARK      'MARKER'                 'INTEND'
    MARK      'MARKER'                 'INTORG'
    X0000548  C0000680  -1.600000000000e+02
    X0000548  C0000681  -1.000000000000e+00
    X0000548  OBJ        2.000000000000e+03
    MARK      'MARKER'                 'INTEND'
    MARK      'MARKER'                 'INTORG'
    X0000549  C0000683  -1.600000000000e+02
    X0000549  C0000684  -1.000000000000e+00
    X0000549  OBJ        2.000000000000e+03
    MARK      'MARKER'                 'INTEND'
    MARK      'MARKER'                 'INTORG'
    X0000550  C0000686  -1.600000000000e+02
    X0000550  C0000687  -1.000000000000e+00
    X0000550  OBJ        2.000000000000e+03
    MARK      'MARKER'                 'INTEND'
    MARK      'MARKER'                 'INTORG'
    X0000551  C0000689  -1.600000000000e+02
    X0000551  C0000690  -1.000000000000e+00
    X0000551  OBJ        2.000000000000e+03
    MARK      'MARKER'                 'INTEND'
    MARK      'MARKER'                 'INTORG'
    X0000552  C0000692  -1.600000000000e+02
    X0000552  C0000693  -1.000000000000e+00
    X0000552  OBJ        2.000000000000e+03
    MARK      'MARKER'                 'INTEND'
    MARK      'MARKER'                 'INTORG'
    X0000553  C0000695  -1.600000000000e+02
    X0000553  C0000696  -1.000000000000e+00
    X0000553  OBJ        2.000000000000e+03
    MARK      'MARKER'                 'INTEND'
    MARK      'MARKER'                 'INTORG'
    X0000554  C0000698  -1.600000000000e+02
    X0000554  C0000699  -1.000000000000e+00
    X0000554  OBJ        2.000000000000e+03
    MARK      'MARKER'                 'INTEND'
    MARK      'MARKER'                 'INTORG'
    X0000555  C0000701  -1.600000000000e+02
    X0000555  C0000702  -1.000000000000e+00
    X0000555  OBJ        2.000000000000e+03
    MARK      'MARKER'                 'INTEND'
    MARK      'MARKER'                 'INTORG'
    X0000556  C0000707  -1.600000000000e+02
    X0000556  C0000708  -1.000000000000e+00
    X0000556  OBJ        2.000000000000e+03
    MARK      'MARKER'                 'INTEND'
    MARK      'MARKER'                 'INTORG'
    X0000557  C0000734  -1.600000000000e+02
    X0000557  C0000735  -1.000000000000e+00
    X0000557  OBJ        2.000000000000e+03
    MARK      'MARKER'                 'INTEND'
    MARK      'MARKER'                 'INTORG'
    X0000558  C0000710  -1.600000000000e+02
    X0000558  C0000711  -1.000000000000e+00
    X0000558  OBJ        2.000000000000e+03
    MARK      'MARKER'                 'INTEND'
    MARK      'MARKER'                 'INTORG'
    X0000559  C0000713  -1.600000000000e+02
    X0000559  C0000714  -1.000000000000e+00
    X0000559  OBJ        2.000000000000e+03
    MARK      'MARKER'                 'INTEND'
    MARK      'MARKER'                 'INTORG'
    X0000560  C0000716  -1.600000000000e+02
    X0000560  C0000717  -1.000000000000e+00
    X0000560  OBJ        2.000000000000e+03
    MARK      'MARKER'                 'INTEND'
    MARK      'MARKER'                 'INTORG'
    X0000561  C0000719  -1.600000000000e+02
    X0000561  C0000720  -1.000000000000e+00
    X0000561  OBJ        2.000000000000e+03
    MARK      'MARKER'                 'INTEND'
    MARK      'MARKER'                 'INTORG'
    X0000562  C0000722  -1.600000000000e+02
    X0000562  C0000723  -1.000000000000e+00
    X0000562  OBJ        2.000000000000e+03
    MARK      'MARKER'                 'INTEND'
    MARK      'MARKER'                 'INTORG'
    X0000563  C0000725  -1.600000000000e+02
    X0000563  C0000726  -1.000000000000e+00
    X0000563  OBJ        2.000000000000e+03
    MARK      'MARKER'                 'INTEND'
    MARK      'MARKER'                 'INTORG'
    X0000564  C0000728  -1.600000000000e+02
    X0000564  C0000729  -1.000000000000e+00
    X0000564  OBJ        2.000000000000e+03
    MARK      'MARKER'                 'INTEND'
    MARK      'MARKER'                 'INTORG'
    X0000565  C0000731  -1.600000000000e+02
    X0000565  C0000732  -1.000000000000e+00
    X0000565  OBJ        2.000000000000e+03
    MARK      'MARKER'                 'INTEND'
    MARK      'MARKER'                 'INTORG'
    X0000566  C0000737  -1.600000000000e+02
    X0000566  C0000738  -1.000000000000e+00
    X0000566  OBJ        2.000000000000e+03
    MARK      'MARKER'                 'INTEND'
    MARK      'MARKER'                 'INTORG'
    X0000567  C0000764  -1.600000000000e+02
    X0000567  C0000765  -1.000000000000e+00
    X0000567  OBJ        2.000000000000e+03
    MARK      'MARKER'                 'INTEND'
    MARK      'MARKER'                 'INTORG'
    X0000568  C0000740  -1.600000000000e+02
    X0000568  C0000741  -1.000000000000e+00
    X0000568  OBJ        2.000000000000e+03
    MARK      'MARKER'                 'INTEND'
    MARK      'MARKER'                 'INTORG'
    X0000569  C0000743  -1.600000000000e+02
    X0000569  C0000744  -1.000000000000e+00
    X0000569  OBJ        2.000000000000e+03
    MARK      'MARKER'                 'INTEND'
    MARK      'MARKER'                 'INTORG'
    X0000570  C0000746  -1.600000000000e+02
    X0000570  C0000747  -1.000000000000e+00
    X0000570  OBJ        2.000000000000e+03
    MARK      'MARKER'                 'INTEND'
    MARK      'MARKER'                 'INTORG'
    X0000571  C0000749  -1.600000000000e+02
    X0000571  C0000750  -1.000000000000e+00
    X0000571  OBJ        2.000000000000e+03
    MARK      'MARKER'                 'INTEND'
    MARK      'MARKER'                 'INTORG'
    X0000572  C0000752  -1.600000000000e+02
    X0000572  C0000753  -1.000000000000e+00
    X0000572  OBJ        2.000000000000e+03
    MARK      'MARKER'                 'INTEND'
    MARK      'MARKER'                 'INTORG'
    X0000573  C0000755  -1.600000000000e+02
    X0000573  C0000756  -1.000000000000e+00
    X0000573  OBJ        2.000000000000e+03
    MARK      'MARKER'                 'INTEND'
    MARK      'MARKER'                 'INTORG'
    X0000574  C0000758  -1.600000000000e+02
    X0000574  C0000759  -1.000000000000e+00
    X0000574  OBJ        2.000000000000e+03
    MARK      'MARKER'                 'INTEND'
    MARK      'MARKER'                 'INTORG'
    X0000575  C0000761  -1.600000000000e+02
    X0000575  C0000762  -1.000000000000e+00
    X0000575  OBJ        2.000000000000e+03
    MARK      'MARKER'                 'INTEND'
    MARK      'MARKER'                 'INTORG'
    X0000576  C0000767  -1.600000000000e+02
    X0000576  C0000768  -1.000000000000e+00
    X0000576  OBJ        2.000000000000e+03
    MARK      'MARKER'                 'INTEND'
    MARK      'MARKER'                 'INTORG'
    X0000577  C0000794  -1.600000000000e+02
    X0000577  C0000795  -1.000000000000e+00
    X0000577  OBJ        2.000000000000e+03
    MARK      'MARKER'                 'INTEND'
    MARK      'MARKER'                 'INTORG'
    X0000578  C0000770  -1.600000000000e+02
    X0000578  C0000771  -1.000000000000e+00
    X0000578  OBJ        2.000000000000e+03
    MARK      'MARKER'                 'INTEND'
    MARK      'MARKER'                 'INTORG'
    X0000579  C0000773  -1.600000000000e+02
    X0000579  C0000774  -1.000000000000e+00
    X0000579  OBJ        2.000000000000e+03
    MARK      'MARKER'                 'INTEND'
    MARK      'MARKER'                 'INTORG'
    X0000580  C0000776  -1.600000000000e+02
    X0000580  C0000777  -1.000000000000e+00
    X0000580  OBJ        2.000000000000e+03
    MARK      'MARKER'                 'INTEND'
    MARK      'MARKER'                 'INTORG'
    X0000581  C0000779  -1.600000000000e+02
    X0000581  C0000780  -1.000000000000e+00
    X0000581  OBJ        2.000000000000e+03
    MARK      'MARKER'                 'INTEND'
    MARK      'MARKER'                 'INTORG'
    X0000582  C0000782  -1.600000000000e+02
    X0000582  C0000783  -1.000000000000e+00
    X0000582  OBJ        2.000000000000e+03
    MARK      'MARKER'                 'INTEND'
    MARK      'MARKER'                 'INTORG'
    X0000583  C0000785  -1.600000000000e+02
    X0000583  C0000786  -1.000000000000e+00
    X0000583  OBJ        2.000000000000e+03
    MARK      'MARKER'                 'INTEND'
    MARK      'MARKER'                 'INTORG'
    X0000584  C0000788  -1.600000000000e+02
    X0000584  C0000789  -1.000000000000e+00
    X0000584  OBJ        2.000000000000e+03
    MARK      'MARKER'                 'INTEND'
    MARK      'MARKER'                 'INTORG'
    X0000585  C0000791  -1.600000000000e+02
    X0000585  C0000792  -1.000000000000e+00
    X0000585  OBJ        2.000000000000e+03
    MARK      'MARKER'                 'INTEND'
    MARK      'MARKER'                 'INTORG'
    X0000586  C0000797  -1.600000000000e+02
    X0000586  C0000798  -1.000000000000e+00
    X0000586  OBJ        2.000000000000e+03
    MARK      'MARKER'                 'INTEND'
    MARK      'MARKER'                 'INTORG'
    X0000587  C0000824  -1.600000000000e+02
    X0000587  C0000825  -1.000000000000e+00
    X0000587  OBJ        2.000000000000e+03
    MARK      'MARKER'                 'INTEND'
    MARK      'MARKER'                 'INTORG'
    X0000588  C0000800  -1.600000000000e+02
    X0000588  C0000801  -1.000000000000e+00
    X0000588  OBJ        2.000000000000e+03
    MARK      'MARKER'                 'INTEND'
    MARK      'MARKER'                 'INTORG'
    X0000589  C0000803  -1.600000000000e+02
    X0000589  C0000804  -1.000000000000e+00
    X0000589  OBJ        2.000000000000e+03
    MARK      'MARKER'                 'INTEND'
    MARK      'MARKER'                 'INTORG'
    X0000590  C0000806  -1.600000000000e+02
    X0000590  C0000807  -1.000000000000e+00
    X0000590  OBJ        2.000000000000e+03
    MARK      'MARKER'                 'INTEND'
    MARK      'MARKER'                 'INTORG'
    X0000591  C0000809  -1.600000000000e+02
    X0000591  C0000810  -1.000000000000e+00
    X0000591  OBJ        2.000000000000e+03
    MARK      'MARKER'                 'INTEND'
    MARK      'MARKER'                 'INTORG'
    X0000592  C0000812  -1.600000000000e+02
    X0000592  C0000813  -1.000000000000e+00
    X0000592  OBJ        2.000000000000e+03
    MARK      'MARKER'                 'INTEND'
    MARK      'MARKER'                 'INTORG'
    X0000593  C0000815  -1.600000000000e+02
    X0000593  C0000816  -1.000000000000e+00
    X0000593  OBJ        2.000000000000e+03
    MARK      'MARKER'                 'INTEND'
    MARK      'MARKER'                 'INTORG'
    X0000594  C0000818  -1.600000000000e+02
    X0000594  C0000819  -1.000000000000e+00
    X0000594  OBJ        2.000000000000e+03
    MARK      'MARKER'                 'INTEND'
    MARK      'MARKER'                 'INTORG'
    X0000595  C0000821  -1.600000000000e+02
    X0000595  C0000822  -1.000000000000e+00
    X0000595  OBJ        2.000000000000e+03
    MARK      'MARKER'                 'INTEND'
    MARK      'MARKER'                 'INTORG'
    X0000596  C0000827  -1.600000000000e+02
    X0000596  C0000828  -1.000000000000e+00
    X0000596  OBJ        2.000000000000e+03
    MARK      'MARKER'                 'INTEND'
    MARK      'MARKER'                 'INTORG'
    X0000597  C0000854  -1.600000000000e+02
    X0000597  C0000855  -1.000000000000e+00
    X0000597  OBJ        2.000000000000e+03
    MARK      'MARKER'                 'INTEND'
    MARK      'MARKER'                 'INTORG'
    X0000598  C0000830  -1.600000000000e+02
    X0000598  C0000831  -1.000000000000e+00
    X0000598  OBJ        2.000000000000e+03
    MARK      'MARKER'                 'INTEND'
    MARK      'MARKER'                 'INTORG'
    X0000599  C0000833  -1.600000000000e+02
    X0000599  C0000834  -1.000000000000e+00
    X0000599  OBJ        2.000000000000e+03
    MARK      'MARKER'                 'INTEND'
    MARK      'MARKER'                 'INTORG'
    X0000600  C0000836  -1.600000000000e+02
    X0000600  C0000837  -1.000000000000e+00
    X0000600  OBJ        2.000000000000e+03
    MARK      'MARKER'                 'INTEND'
    MARK      'MARKER'                 'INTORG'
    X0000601  C0000839  -1.600000000000e+02
    X0000601  C0000840  -1.000000000000e+00
    X0000601  OBJ        2.000000000000e+03
    MARK      'MARKER'                 'INTEND'
    MARK      'MARKER'                 'INTORG'
    X0000602  C0000842  -1.600000000000e+02
    X0000602  C0000843  -1.000000000000e+00
    X0000602  OBJ        2.000000000000e+03
    MARK      'MARKER'                 'INTEND'
    MARK      'MARKER'                 'INTORG'
    X0000603  C0000845  -1.600000000000e+02
    X0000603  C0000846  -1.000000000000e+00
    X0000603  OBJ        2.000000000000e+03
    MARK      'MARKER'                 'INTEND'
    MARK      'MARKER'                 'INTORG'
    X0000604  C0000848  -1.600000000000e+02
    X0000604  C0000849  -1.000000000000e+00
    X0000604  OBJ        2.000000000000e+03
    MARK      'MARKER'                 'INTEND'
    MARK      'MARKER'                 'INTORG'
    X0000605  C0000851  -1.600000000000e+02
    X0000605  C0000852  -1.000000000000e+00
    X0000605  OBJ        2.000000000000e+03
    MARK      'MARKER'                 'INTEND'
    MARK      'MARKER'                 'INTORG'
    X0000606  C0000858  -1.600000000000e+02
    X0000606  C0000859  -1.000000000000e+00
    X0000606  OBJ        2.000000000000e+03
    MARK      'MARKER'                 'INTEND'
    MARK      'MARKER'                 'INTORG'
    X0000607  C0000897   1.000000000000e+00
    X0000607  OBJ        2.000000000000e+03
    MARK      'MARKER'                 'INTEND'
    MARK      'MARKER'                 'INTORG'
    X0000608  C0000862  -1.600000000000e+02
    X0000608  C0000863  -1.000000000000e+00
    X0000608  OBJ        2.000000000000e+03
    MARK      'MARKER'                 'INTEND'
    MARK      'MARKER'                 'INTORG'
    X0000609  C0000866  -1.600000000000e+02
    X0000609  C0000867  -1.000000000000e+00
    X0000609  OBJ        2.000000000000e+03
    MARK      'MARKER'                 'INTEND'
    MARK      'MARKER'                 'INTORG'
    X0000610  C0000870  -1.600000000000e+02
    X0000610  C0000871  -1.000000000000e+00
    X0000610  OBJ        2.000000000000e+03
    MARK      'MARKER'                 'INTEND'
    MARK      'MARKER'                 'INTORG'
    X0000611  C0000874  -1.600000000000e+02
    X0000611  C0000875  -1.000000000000e+00
    X0000611  OBJ        2.000000000000e+03
    MARK      'MARKER'                 'INTEND'
    MARK      'MARKER'                 'INTORG'
    X0000612  C0000878  -1.600000000000e+02
    X0000612  C0000879  -1.000000000000e+00
    X0000612  OBJ        2.000000000000e+03
    MARK      'MARKER'                 'INTEND'
    MARK      'MARKER'                 'INTORG'
    X0000613  C0000882  -1.600000000000e+02
    X0000613  C0000883  -1.000000000000e+00
    X0000613  OBJ        2.000000000000e+03
    MARK      'MARKER'                 'INTEND'
    MARK      'MARKER'                 'INTORG'
    X0000614  C0000887   1.000000000000e+00
    X0000614  OBJ        2.000000000000e+03
    MARK      'MARKER'                 'INTEND'
    MARK      'MARKER'                 'INTORG'
    X0000615  C0000892   1.000000000000e+00
    X0000615  OBJ        2.000000000000e+03
    MARK      'MARKER'                 'INTEND'
    MARK      'MARKER'                 'INTORG'
    X0000616  C0000901  -1.600000000000e+02
    X0000616  C0000902  -1.000000000000e+00
    X0000616  OBJ        2.000000000000e+03
    MARK      'MARKER'                 'INTEND'
    MARK      'MARKER'                 'INTORG'
    X0000617  C0000940   1.000000000000e+00
    X0000617  OBJ        2.000000000000e+03
    MARK      'MARKER'                 'INTEND'
    MARK      'MARKER'                 'INTORG'
    X0000618  C0000905  -1.600000000000e+02
    X0000618  C0000906  -1.000000000000e+00
    X0000618  OBJ        2.000000000000e+03
    MARK      'MARKER'                 'INTEND'
    MARK      'MARKER'                 'INTORG'
    X0000619  C0000909  -1.600000000000e+02
    X0000619  C0000910  -1.000000000000e+00
    X0000619  OBJ        2.000000000000e+03
    MARK      'MARKER'                 'INTEND'
    MARK      'MARKER'                 'INTORG'
    X0000620  C0000913  -1.600000000000e+02
    X0000620  C0000914  -1.000000000000e+00
    X0000620  OBJ        2.000000000000e+03
    MARK      'MARKER'                 'INTEND'
    MARK      'MARKER'                 'INTORG'
    X0000621  C0000917  -1.600000000000e+02
    X0000621  C0000918  -1.000000000000e+00
    X0000621  OBJ        2.000000000000e+03
    MARK      'MARKER'                 'INTEND'
    MARK      'MARKER'                 'INTORG'
    X0000622  C0000921  -1.600000000000e+02
    X0000622  C0000922  -1.000000000000e+00
    X0000622  OBJ        2.000000000000e+03
    MARK      'MARKER'                 'INTEND'
    MARK      'MARKER'                 'INTORG'
    X0000623  C0000925  -1.600000000000e+02
    X0000623  C0000926  -1.000000000000e+00
    X0000623  OBJ        2.000000000000e+03
    MARK      'MARKER'                 'INTEND'
    MARK      'MARKER'                 'INTORG'
    X0000624  C0000930   1.000000000000e+00
    X0000624  OBJ        2.000000000000e+03
    MARK      'MARKER'                 'INTEND'
    MARK      'MARKER'                 'INTORG'
    X0000625  C0000935   1.000000000000e+00
    X0000625  OBJ        2.000000000000e+03
    MARK      'MARKER'                 'INTEND'
    MARK      'MARKER'                 'INTORG'
    X0000626  C0000944  -1.600000000000e+02
    X0000626  C0000945  -1.000000000000e+00
    X0000626  OBJ        2.000000000000e+03
    MARK      'MARKER'                 'INTEND'
    MARK      'MARKER'                 'INTORG'
    X0000627  C0000983   1.000000000000e+00
    X0000627  OBJ        2.000000000000e+03
    MARK      'MARKER'                 'INTEND'
    MARK      'MARKER'                 'INTORG'
    X0000628  C0000948  -1.600000000000e+02
    X0000628  C0000949  -1.000000000000e+00
    X0000628  OBJ        2.000000000000e+03
    MARK      'MARKER'                 'INTEND'
    MARK      'MARKER'                 'INTORG'
    X0000629  C0000952  -1.600000000000e+02
    X0000629  C0000953  -1.000000000000e+00
    X0000629  OBJ        2.000000000000e+03
    MARK      'MARKER'                 'INTEND'
    MARK      'MARKER'                 'INTORG'
    X0000630  C0000956  -1.600000000000e+02
    X0000630  C0000957  -1.000000000000e+00
    X0000630  OBJ        2.000000000000e+03
    MARK      'MARKER'                 'INTEND'
    MARK      'MARKER'                 'INTORG'
    X0000631  C0000960  -1.600000000000e+02
    X0000631  C0000961  -1.000000000000e+00
    X0000631  OBJ        2.000000000000e+03
    MARK      'MARKER'                 'INTEND'
    MARK      'MARKER'                 'INTORG'
    X0000632  C0000964  -1.600000000000e+02
    X0000632  C0000965  -1.000000000000e+00
    X0000632  OBJ        2.000000000000e+03
    MARK      'MARKER'                 'INTEND'
    MARK      'MARKER'                 'INTORG'
    X0000633  C0000968  -1.600000000000e+02
    X0000633  C0000969  -1.000000000000e+00
    X0000633  OBJ        2.000000000000e+03
    MARK      'MARKER'                 'INTEND'
    MARK      'MARKER'                 'INTORG'
    X0000634  C0000973   1.000000000000e+00
    X0000634  OBJ        2.000000000000e+03
    MARK      'MARKER'                 'INTEND'
    MARK      'MARKER'                 'INTORG'
    X0000635  C0000978   1.000000000000e+00
    X0000635  OBJ        2.000000000000e+03
    MARK      'MARKER'                 'INTEND'
    MARK      'MARKER'                 'INTORG'
    X0000636  C0000987  -1.600000000000e+02
    X0000636  C0000988  -1.000000000000e+00
    X0000636  OBJ        2.000000000000e+03
    MARK      'MARKER'                 'INTEND'
    MARK      'MARKER'                 'INTORG'
    X0000637  C0001026   1.000000000000e+00
    X0000637  OBJ        2.000000000000e+03
    MARK      'MARKER'                 'INTEND'
    MARK      'MARKER'                 'INTORG'
    X0000638  C0000991  -1.600000000000e+02
    X0000638  C0000992  -1.000000000000e+00
    X0000638  OBJ        2.000000000000e+03
    MARK      'MARKER'                 'INTEND'
    MARK      'MARKER'                 'INTORG'
    X0000639  C0000995  -1.600000000000e+02
    X0000639  C0000996  -1.000000000000e+00
    X0000639  OBJ        2.000000000000e+03
    MARK      'MARKER'                 'INTEND'
    MARK      'MARKER'                 'INTORG'
    X0000640  C0000999  -1.600000000000e+02
    X0000640  C0001000  -1.000000000000e+00
    X0000640  OBJ        2.000000000000e+03
    MARK      'MARKER'                 'INTEND'
    MARK      'MARKER'                 'INTORG'
    X0000641  C0001003  -1.600000000000e+02
    X0000641  C0001004  -1.000000000000e+00
    X0000641  OBJ        2.000000000000e+03
    MARK      'MARKER'                 'INTEND'
    MARK      'MARKER'                 'INTORG'
    X0000642  C0001007  -1.600000000000e+02
    X0000642  C0001008  -1.000000000000e+00
    X0000642  OBJ        2.000000000000e+03
    MARK      'MARKER'                 'INTEND'
    MARK      'MARKER'                 'INTORG'
    X0000643  C0001011  -1.600000000000e+02
    X0000643  C0001012  -1.000000000000e+00
    X0000643  OBJ        2.000000000000e+03
    MARK      'MARKER'                 'INTEND'
    MARK      'MARKER'                 'INTORG'
    X0000644  C0001016   1.000000000000e+00
    X0000644  OBJ        2.000000000000e+03
    MARK      'MARKER'                 'INTEND'
    MARK      'MARKER'                 'INTORG'
    X0000645  C0001021   1.000000000000e+00
    X0000645  OBJ        2.000000000000e+03
    MARK      'MARKER'                 'INTEND'
    MARK      'MARKER'                 'INTORG'
    X0000646  C0001030  -1.600000000000e+02
    X0000646  C0001031  -1.000000000000e+00
    X0000646  OBJ        2.000000000000e+03
    MARK      'MARKER'                 'INTEND'
    MARK      'MARKER'                 'INTORG'
    X0000647  C0001069   1.000000000000e+00
    X0000647  OBJ        2.000000000000e+03
    MARK      'MARKER'                 'INTEND'
    MARK      'MARKER'                 'INTORG'
    X0000648  C0001034  -1.600000000000e+02
    X0000648  C0001035  -1.000000000000e+00
    X0000648  OBJ        2.000000000000e+03
    MARK      'MARKER'                 'INTEND'
    MARK      'MARKER'                 'INTORG'
    X0000649  C0001038  -1.600000000000e+02
    X0000649  C0001039  -1.000000000000e+00
    X0000649  OBJ        2.000000000000e+03
    MARK      'MARKER'                 'INTEND'
    MARK      'MARKER'                 'INTORG'
    X0000650  C0001042  -1.600000000000e+02
    X0000650  C0001043  -1.000000000000e+00
    X0000650  OBJ        2.000000000000e+03
    MARK      'MARKER'                 'INTEND'
    MARK      'MARKER'                 'INTORG'
    X0000651  C0001046  -1.600000000000e+02
    X0000651  C0001047  -1.000000000000e+00
    X0000651  OBJ        2.000000000000e+03
    MARK      'MARKER'                 'INTEND'
    MARK      'MARKER'                 'INTORG'
    X0000652  C0001050  -1.600000000000e+02
    X0000652  C0001051  -1.000000000000e+00
    X0000652  OBJ        2.000000000000e+03
    MARK      'MARKER'                 'INTEND'
    MARK      'MARKER'                 'INTORG'
    X0000653  C0001054  -1.600000000000e+02
    X0000653  C0001055  -1.000000000000e+00
    X0000653  OBJ        2.000000000000e+03
    MARK      'MARKER'                 'INTEND'
    MARK      'MARKER'                 'INTORG'
    X0000654  C0001059   1.000000000000e+00
    X0000654  OBJ        2.000000000000e+03
    MARK      'MARKER'                 'INTEND'
    MARK      'MARKER'                 'INTORG'
    X0000655  C0001064   1.000000000000e+00
    X0000655  OBJ        2.000000000000e+03
    MARK      'MARKER'                 'INTEND'
    MARK      'MARKER'                 'INTORG'
    X0000656  C0001073  -1.600000000000e+02
    X0000656  C0001074  -1.000000000000e+00
    X0000656  OBJ        2.000000000000e+03
    MARK      'MARKER'                 'INTEND'
    MARK      'MARKER'                 'INTORG'
    X0000657  C0001112   1.000000000000e+00
    X0000657  OBJ        2.000000000000e+03
    MARK      'MARKER'                 'INTEND'
    MARK      'MARKER'                 'INTORG'
    X0000658  C0001077  -1.600000000000e+02
    X0000658  C0001078  -1.000000000000e+00
    X0000658  OBJ        2.000000000000e+03
    MARK      'MARKER'                 'INTEND'
    MARK      'MARKER'                 'INTORG'
    X0000659  C0001081  -1.600000000000e+02
    X0000659  C0001082  -1.000000000000e+00
    X0000659  OBJ        2.000000000000e+03
    MARK      'MARKER'                 'INTEND'
    MARK      'MARKER'                 'INTORG'
    X0000660  C0001085  -1.600000000000e+02
    X0000660  C0001086  -1.000000000000e+00
    X0000660  OBJ        2.000000000000e+03
    MARK      'MARKER'                 'INTEND'
    MARK      'MARKER'                 'INTORG'
    X0000661  C0001089  -1.600000000000e+02
    X0000661  C0001090  -1.000000000000e+00
    X0000661  OBJ        2.000000000000e+03
    MARK      'MARKER'                 'INTEND'
    MARK      'MARKER'                 'INTORG'
    X0000662  C0001093  -1.600000000000e+02
    X0000662  C0001094  -1.000000000000e+00
    X0000662  OBJ        2.000000000000e+03
    MARK      'MARKER'                 'INTEND'
    MARK      'MARKER'                 'INTORG'
    X0000663  C0001097  -1.600000000000e+02
    X0000663  C0001098  -1.000000000000e+00
    X0000663  OBJ        2.000000000000e+03
    MARK      'MARKER'                 'INTEND'
    MARK      'MARKER'                 'INTORG'
    X0000664  C0001102   1.000000000000e+00
    X0000664  OBJ        2.000000000000e+03
    MARK      'MARKER'                 'INTEND'
    MARK      'MARKER'                 'INTORG'
    X0000665  C0001107   1.000000000000e+00
    X0000665  OBJ        2.000000000000e+03
    MARK      'MARKER'                 'INTEND'
    MARK      'MARKER'                 'INTORG'
    X0000666  C0001116  -1.600000000000e+02
    X0000666  C0001117  -1.000000000000e+00
    X0000666  OBJ        2.000000000000e+03
    MARK      'MARKER'                 'INTEND'
    MARK      'MARKER'                 'INTORG'
    X0000667  C0001155   1.000000000000e+00
    X0000667  OBJ        2.000000000000e+03
    MARK      'MARKER'                 'INTEND'
    MARK      'MARKER'                 'INTORG'
    X0000668  C0001120  -1.600000000000e+02
    X0000668  C0001121  -1.000000000000e+00
    X0000668  OBJ        2.000000000000e+03
    MARK      'MARKER'                 'INTEND'
    MARK      'MARKER'                 'INTORG'
    X0000669  C0001124  -1.600000000000e+02
    X0000669  C0001125  -1.000000000000e+00
    X0000669  OBJ        2.000000000000e+03
    MARK      'MARKER'                 'INTEND'
    MARK      'MARKER'                 'INTORG'
    X0000670  C0001128  -1.600000000000e+02
    X0000670  C0001129  -1.000000000000e+00
    X0000670  OBJ        2.000000000000e+03
    MARK      'MARKER'                 'INTEND'
    MARK      'MARKER'                 'INTORG'
    X0000671  C0001132  -1.600000000000e+02
    X0000671  C0001133  -1.000000000000e+00
    X0000671  OBJ        2.000000000000e+03
    MARK      'MARKER'                 'INTEND'
    MARK      'MARKER'                 'INTORG'
    X0000672  C0001136  -1.600000000000e+02
    X0000672  C0001137  -1.000000000000e+00
    X0000672  OBJ        2.000000000000e+03
    MARK      'MARKER'                 'INTEND'
    MARK      'MARKER'                 'INTORG'
    X0000673  C0001140  -1.600000000000e+02
    X0000673  C0001141  -1.000000000000e+00
    X0000673  OBJ        2.000000000000e+03
    MARK      'MARKER'                 'INTEND'
    MARK      'MARKER'                 'INTORG'
    X0000674  C0001145   1.000000000000e+00
    X0000674  OBJ        2.000000000000e+03
    MARK      'MARKER'                 'INTEND'
    MARK      'MARKER'                 'INTORG'
    X0000675  C0001150   1.000000000000e+00
    X0000675  OBJ        2.000000000000e+03
    MARK      'MARKER'                 'INTEND'
    MARK      'MARKER'                 'INTORG'
    X0000676  C0001159  -1.600000000000e+02
    X0000676  C0001160  -1.000000000000e+00
    X0000676  OBJ        2.000000000000e+03
    MARK      'MARKER'                 'INTEND'
    MARK      'MARKER'                 'INTORG'
    X0000677  C0001198   1.000000000000e+00
    X0000677  OBJ        2.000000000000e+03
    MARK      'MARKER'                 'INTEND'
    MARK      'MARKER'                 'INTORG'
    X0000678  C0001163  -1.600000000000e+02
    X0000678  C0001164  -1.000000000000e+00
    X0000678  OBJ        2.000000000000e+03
    MARK      'MARKER'                 'INTEND'
    MARK      'MARKER'                 'INTORG'
    X0000679  C0001167  -1.600000000000e+02
    X0000679  C0001168  -1.000000000000e+00
    X0000679  OBJ        2.000000000000e+03
    MARK      'MARKER'                 'INTEND'
    MARK      'MARKER'                 'INTORG'
    X0000680  C0001171  -1.600000000000e+02
    X0000680  C0001172  -1.000000000000e+00
    X0000680  OBJ        2.000000000000e+03
    MARK      'MARKER'                 'INTEND'
    MARK      'MARKER'                 'INTORG'
    X0000681  C0001175  -1.600000000000e+02
    X0000681  C0001176  -1.000000000000e+00
    X0000681  OBJ        2.000000000000e+03
    MARK      'MARKER'                 'INTEND'
    MARK      'MARKER'                 'INTORG'
    X0000682  C0001179  -1.600000000000e+02
    X0000682  C0001180  -1.000000000000e+00
    X0000682  OBJ        2.000000000000e+03
    MARK      'MARKER'                 'INTEND'
    MARK      'MARKER'                 'INTORG'
    X0000683  C0001183  -1.600000000000e+02
    X0000683  C0001184  -1.000000000000e+00
    X0000683  OBJ        2.000000000000e+03
    MARK      'MARKER'                 'INTEND'
    MARK      'MARKER'                 'INTORG'
    X0000684  C0001188   1.000000000000e+00
    X0000684  OBJ        2.000000000000e+03
    MARK      'MARKER'                 'INTEND'
    MARK      'MARKER'                 'INTORG'
    X0000685  C0001193   1.000000000000e+00
    X0000685  OBJ        2.000000000000e+03
    MARK      'MARKER'                 'INTEND'
    MARK      'MARKER'                 'INTORG'
    X0000686  C0001202  -1.600000000000e+02
    X0000686  C0001203  -1.000000000000e+00
    X0000686  OBJ        2.000000000000e+03
    MARK      'MARKER'                 'INTEND'
    MARK      'MARKER'                 'INTORG'
    X0000687  C0001241   1.000000000000e+00
    X0000687  OBJ        2.000000000000e+03
    MARK      'MARKER'                 'INTEND'
    MARK      'MARKER'                 'INTORG'
    X0000688  C0001206  -1.600000000000e+02
    X0000688  C0001207  -1.000000000000e+00
    X0000688  OBJ        2.000000000000e+03
    MARK      'MARKER'                 'INTEND'
    MARK      'MARKER'                 'INTORG'
    X0000689  C0001210  -1.600000000000e+02
    X0000689  C0001211  -1.000000000000e+00
    X0000689  OBJ        2.000000000000e+03
    MARK      'MARKER'                 'INTEND'
    MARK      'MARKER'                 'INTORG'
    X0000690  C0001214  -1.600000000000e+02
    X0000690  C0001215  -1.000000000000e+00
    X0000690  OBJ        2.000000000000e+03
    MARK      'MARKER'                 'INTEND'
    MARK      'MARKER'                 'INTORG'
    X0000691  C0001218  -1.600000000000e+02
    X0000691  C0001219  -1.000000000000e+00
    X0000691  OBJ        2.000000000000e+03
    MARK      'MARKER'                 'INTEND'
    MARK      'MARKER'                 'INTORG'
    X0000692  C0001222  -1.600000000000e+02
    X0000692  C0001223  -1.000000000000e+00
    X0000692  OBJ        2.000000000000e+03
    MARK      'MARKER'                 'INTEND'
    MARK      'MARKER'                 'INTORG'
    X0000693  C0001226  -1.600000000000e+02
    X0000693  C0001227  -1.000000000000e+00
    X0000693  OBJ        2.000000000000e+03
    MARK      'MARKER'                 'INTEND'
    MARK      'MARKER'                 'INTORG'
    X0000694  C0001231   1.000000000000e+00
    X0000694  OBJ        2.000000000000e+03
    MARK      'MARKER'                 'INTEND'
    MARK      'MARKER'                 'INTORG'
    X0000695  C0001236   1.000000000000e+00
    X0000695  OBJ        2.000000000000e+03
    MARK      'MARKER'                 'INTEND'
    MARK      'MARKER'                 'INTORG'
    X0000696  C0001245  -1.600000000000e+02
    X0000696  C0001246  -1.000000000000e+00
    X0000696  OBJ        2.000000000000e+03
    MARK      'MARKER'                 'INTEND'
    MARK      'MARKER'                 'INTORG'
    X0000697  C0001284   1.000000000000e+00
    X0000697  OBJ        2.000000000000e+03
    MARK      'MARKER'                 'INTEND'
    MARK      'MARKER'                 'INTORG'
    X0000698  C0001249  -1.600000000000e+02
    X0000698  C0001250  -1.000000000000e+00
    X0000698  OBJ        2.000000000000e+03
    MARK      'MARKER'                 'INTEND'
    MARK      'MARKER'                 'INTORG'
    X0000699  C0001253  -1.600000000000e+02
    X0000699  C0001254  -1.000000000000e+00
    X0000699  OBJ        2.000000000000e+03
    MARK      'MARKER'                 'INTEND'
    MARK      'MARKER'                 'INTORG'
    X0000700  C0001257  -1.600000000000e+02
    X0000700  C0001258  -1.000000000000e+00
    X0000700  OBJ        2.000000000000e+03
    MARK      'MARKER'                 'INTEND'
    MARK      'MARKER'                 'INTORG'
    X0000701  C0001261  -1.600000000000e+02
    X0000701  C0001262  -1.000000000000e+00
    X0000701  OBJ        2.000000000000e+03
    MARK      'MARKER'                 'INTEND'
    MARK      'MARKER'                 'INTORG'
    X0000702  C0001265  -1.600000000000e+02
    X0000702  C0001266  -1.000000000000e+00
    X0000702  OBJ        2.000000000000e+03
    MARK      'MARKER'                 'INTEND'
    MARK      'MARKER'                 'INTORG'
    X0000703  C0001269  -1.600000000000e+02
    X0000703  C0001270  -1.000000000000e+00
    X0000703  OBJ        2.000000000000e+03
    MARK      'MARKER'                 'INTEND'
    MARK      'MARKER'                 'INTORG'
    X0000704  C0001274   1.000000000000e+00
    X0000704  OBJ        2.000000000000e+03
    MARK      'MARKER'                 'INTEND'
    MARK      'MARKER'                 'INTORG'
    X0000705  C0001279   1.000000000000e+00
    X0000705  OBJ        2.000000000000e+03
    MARK      'MARKER'                 'INTEND'
    MARK      'MARKER'                 'INTORG'
    X0000706  C0001288  -1.600000000000e+02
    X0000706  C0001289  -1.000000000000e+00
    X0000706  OBJ        2.000000000000e+03
    MARK      'MARKER'                 'INTEND'
    MARK      'MARKER'                 'INTORG'
    X0000707  C0001327   1.000000000000e+00
    X0000707  OBJ        2.000000000000e+03
    MARK      'MARKER'                 'INTEND'
    MARK      'MARKER'                 'INTORG'
    X0000708  C0001292  -1.600000000000e+02
    X0000708  C0001293  -1.000000000000e+00
    X0000708  OBJ        2.000000000000e+03
    MARK      'MARKER'                 'INTEND'
    MARK      'MARKER'                 'INTORG'
    X0000709  C0001296  -1.600000000000e+02
    X0000709  C0001297  -1.000000000000e+00
    X0000709  OBJ        2.000000000000e+03
    MARK      'MARKER'                 'INTEND'
    MARK      'MARKER'                 'INTORG'
    X0000710  C0001300  -1.600000000000e+02
    X0000710  C0001301  -1.000000000000e+00
    X0000710  OBJ        2.000000000000e+03
    MARK      'MARKER'                 'INTEND'
    MARK      'MARKER'                 'INTORG'
    X0000711  C0001304  -1.600000000000e+02
    X0000711  C0001305  -1.000000000000e+00
    X0000711  OBJ        2.000000000000e+03
    MARK      'MARKER'                 'INTEND'
    MARK      'MARKER'                 'INTORG'
    X0000712  C0001308  -1.600000000000e+02
    X0000712  C0001309  -1.000000000000e+00
    X0000712  OBJ        2.000000000000e+03
    MARK      'MARKER'                 'INTEND'
    MARK      'MARKER'                 'INTORG'
    X0000713  C0001312  -1.600000000000e+02
    X0000713  C0001313  -1.000000000000e+00
    X0000713  OBJ        2.000000000000e+03
    MARK      'MARKER'                 'INTEND'
    MARK      'MARKER'                 'INTORG'
    X0000714  C0001317   1.000000000000e+00
    X0000714  OBJ        2.000000000000e+03
    MARK      'MARKER'                 'INTEND'
    MARK      'MARKER'                 'INTORG'
    X0000715  C0001322   1.000000000000e+00
    X0000715  OBJ        2.000000000000e+03
    MARK      'MARKER'                 'INTEND'
    MARK      'MARKER'                 'INTORG'
    X0000716  C0001331  -1.600000000000e+02
    X0000716  C0001332  -1.000000000000e+00
    X0000716  OBJ        2.000000000000e+03
    MARK      'MARKER'                 'INTEND'
    MARK      'MARKER'                 'INTORG'
    X0000717  C0001370   1.000000000000e+00
    X0000717  OBJ        2.000000000000e+03
    MARK      'MARKER'                 'INTEND'
    MARK      'MARKER'                 'INTORG'
    X0000718  C0001335  -1.600000000000e+02
    X0000718  C0001336  -1.000000000000e+00
    X0000718  OBJ        2.000000000000e+03
    MARK      'MARKER'                 'INTEND'
    MARK      'MARKER'                 'INTORG'
    X0000719  C0001339  -1.600000000000e+02
    X0000719  C0001340  -1.000000000000e+00
    X0000719  OBJ        2.000000000000e+03
    MARK      'MARKER'                 'INTEND'
    MARK      'MARKER'                 'INTORG'
    X0000720  C0001343  -1.600000000000e+02
    X0000720  C0001344  -1.000000000000e+00
    X0000720  OBJ        2.000000000000e+03
    MARK      'MARKER'                 'INTEND'
    MARK      'MARKER'                 'INTORG'
    X0000721  C0001347  -1.600000000000e+02
    X0000721  C0001348  -1.000000000000e+00
    X0000721  OBJ        2.000000000000e+03
    MARK      'MARKER'                 'INTEND'
    MARK      'MARKER'                 'INTORG'
    X0000722  C0001351  -1.600000000000e+02
    X0000722  C0001352  -1.000000000000e+00
    X0000722  OBJ        2.000000000000e+03
    MARK      'MARKER'                 'INTEND'
    MARK      'MARKER'                 'INTORG'
    X0000723  C0001355  -1.600000000000e+02
    X0000723  C0001356  -1.000000000000e+00
    X0000723  OBJ        2.000000000000e+03
    MARK      'MARKER'                 'INTEND'
    MARK      'MARKER'                 'INTORG'
    X0000724  C0001360   1.000000000000e+00
    X0000724  OBJ        2.000000000000e+03
    MARK      'MARKER'                 'INTEND'
    MARK      'MARKER'                 'INTORG'
    X0000725  C0001365   1.000000000000e+00
    X0000725  OBJ        2.000000000000e+03
    MARK      'MARKER'                 'INTEND'
    MARK      'MARKER'                 'INTORG'
    X0000726  C0001374  -1.600000000000e+02
    X0000726  C0001375  -1.000000000000e+00
    X0000726  OBJ        2.000000000000e+03
    MARK      'MARKER'                 'INTEND'
    MARK      'MARKER'                 'INTORG'
    X0000727  C0001413   1.000000000000e+00
    X0000727  OBJ        2.000000000000e+03
    MARK      'MARKER'                 'INTEND'
    MARK      'MARKER'                 'INTORG'
    X0000728  C0001378  -1.600000000000e+02
    X0000728  C0001379  -1.000000000000e+00
    X0000728  OBJ        2.000000000000e+03
    MARK      'MARKER'                 'INTEND'
    MARK      'MARKER'                 'INTORG'
    X0000729  C0001382  -1.600000000000e+02
    X0000729  C0001383  -1.000000000000e+00
    X0000729  OBJ        2.000000000000e+03
    MARK      'MARKER'                 'INTEND'
    MARK      'MARKER'                 'INTORG'
    X0000730  C0001386  -1.600000000000e+02
    X0000730  C0001387  -1.000000000000e+00
    X0000730  OBJ        2.000000000000e+03
    MARK      'MARKER'                 'INTEND'
    MARK      'MARKER'                 'INTORG'
    X0000731  C0001390  -1.600000000000e+02
    X0000731  C0001391  -1.000000000000e+00
    X0000731  OBJ        2.000000000000e+03
    MARK      'MARKER'                 'INTEND'
    MARK      'MARKER'                 'INTORG'
    X0000732  C0001394  -1.600000000000e+02
    X0000732  C0001395  -1.000000000000e+00
    X0000732  OBJ        2.000000000000e+03
    MARK      'MARKER'                 'INTEND'
    MARK      'MARKER'                 'INTORG'
    X0000733  C0001398  -1.600000000000e+02
    X0000733  C0001399  -1.000000000000e+00
    X0000733  OBJ        2.000000000000e+03
    MARK      'MARKER'                 'INTEND'
    MARK      'MARKER'                 'INTORG'
    X0000734  C0001403   1.000000000000e+00
    X0000734  OBJ        2.000000000000e+03
    MARK      'MARKER'                 'INTEND'
    MARK      'MARKER'                 'INTORG'
    X0000735  C0001408   1.000000000000e+00
    X0000735  OBJ        2.000000000000e+03
    MARK      'MARKER'                 'INTEND'
    MARK      'MARKER'                 'INTORG'
    X0000736  C0001417  -1.600000000000e+02
    X0000736  C0001418  -1.000000000000e+00
    X0000736  OBJ        2.000000000000e+03
    MARK      'MARKER'                 'INTEND'
    MARK      'MARKER'                 'INTORG'
    X0000737  C0001456   1.000000000000e+00
    X0000737  OBJ        2.000000000000e+03
    MARK      'MARKER'                 'INTEND'
    MARK      'MARKER'                 'INTORG'
    X0000738  C0001421  -1.600000000000e+02
    X0000738  C0001422  -1.000000000000e+00
    X0000738  OBJ        2.000000000000e+03
    MARK      'MARKER'                 'INTEND'
    MARK      'MARKER'                 'INTORG'
    X0000739  C0001425  -1.600000000000e+02
    X0000739  C0001426  -1.000000000000e+00
    X0000739  OBJ        2.000000000000e+03
    MARK      'MARKER'                 'INTEND'
    MARK      'MARKER'                 'INTORG'
    X0000740  C0001429  -1.600000000000e+02
    X0000740  C0001430  -1.000000000000e+00
    X0000740  OBJ        2.000000000000e+03
    MARK      'MARKER'                 'INTEND'
    MARK      'MARKER'                 'INTORG'
    X0000741  C0001433  -1.600000000000e+02
    X0000741  C0001434  -1.000000000000e+00
    X0000741  OBJ        2.000000000000e+03
    MARK      'MARKER'                 'INTEND'
    MARK      'MARKER'                 'INTORG'
    X0000742  C0001437  -1.600000000000e+02
    X0000742  C0001438  -1.000000000000e+00
    X0000742  OBJ        2.000000000000e+03
    MARK      'MARKER'                 'INTEND'
    MARK      'MARKER'                 'INTORG'
    X0000743  C0001441  -1.600000000000e+02
    X0000743  C0001442  -1.000000000000e+00
    X0000743  OBJ        2.000000000000e+03
    MARK      'MARKER'                 'INTEND'
    MARK      'MARKER'                 'INTORG'
    X0000744  C0001446   1.000000000000e+00
    X0000744  OBJ        2.000000000000e+03
    MARK      'MARKER'                 'INTEND'
    MARK      'MARKER'                 'INTORG'
    X0000745  C0001451   1.000000000000e+00
    X0000745  OBJ        2.000000000000e+03
    MARK      'MARKER'                 'INTEND'
    MARK      'MARKER'                 'INTORG'
    X0000746  C0001460  -1.600000000000e+02
    X0000746  C0001461  -1.000000000000e+00
    X0000746  OBJ        2.000000000000e+03
    MARK      'MARKER'                 'INTEND'
    MARK      'MARKER'                 'INTORG'
    X0000747  C0001499   1.000000000000e+00
    X0000747  OBJ        2.000000000000e+03
    MARK      'MARKER'                 'INTEND'
    MARK      'MARKER'                 'INTORG'
    X0000748  C0001464  -1.600000000000e+02
    X0000748  C0001465  -1.000000000000e+00
    X0000748  OBJ        2.000000000000e+03
    MARK      'MARKER'                 'INTEND'
    MARK      'MARKER'                 'INTORG'
    X0000749  C0001468  -1.600000000000e+02
    X0000749  C0001469  -1.000000000000e+00
    X0000749  OBJ        2.000000000000e+03
    MARK      'MARKER'                 'INTEND'
    MARK      'MARKER'                 'INTORG'
    X0000750  C0001472  -1.600000000000e+02
    X0000750  C0001473  -1.000000000000e+00
    X0000750  OBJ        2.000000000000e+03
    MARK      'MARKER'                 'INTEND'
    MARK      'MARKER'                 'INTORG'
    X0000751  C0001476  -1.600000000000e+02
    X0000751  C0001477  -1.000000000000e+00
    X0000751  OBJ        2.000000000000e+03
    MARK      'MARKER'                 'INTEND'
    MARK      'MARKER'                 'INTORG'
    X0000752  C0001480  -1.600000000000e+02
    X0000752  C0001481  -1.000000000000e+00
    X0000752  OBJ        2.000000000000e+03
    MARK      'MARKER'                 'INTEND'
    MARK      'MARKER'                 'INTORG'
    X0000753  C0001484  -1.600000000000e+02
    X0000753  C0001485  -1.000000000000e+00
    X0000753  OBJ        2.000000000000e+03
    MARK      'MARKER'                 'INTEND'
    MARK      'MARKER'                 'INTORG'
    X0000754  C0001489   1.000000000000e+00
    X0000754  OBJ        2.000000000000e+03
    MARK      'MARKER'                 'INTEND'
    MARK      'MARKER'                 'INTORG'
    X0000755  C0001494   1.000000000000e+00
    X0000755  OBJ        2.000000000000e+03
    MARK      'MARKER'                 'INTEND'
    MARK      'MARKER'                 'INTORG'
    X0000756  C0001503  -1.600000000000e+02
    X0000756  C0001504  -1.000000000000e+00
    X0000756  OBJ        2.000000000000e+03
    MARK      'MARKER'                 'INTEND'
    MARK      'MARKER'                 'INTORG'
    X0000757  C0001542   1.000000000000e+00
    X0000757  OBJ        2.000000000000e+03
    MARK      'MARKER'                 'INTEND'
    MARK      'MARKER'                 'INTORG'
    X0000758  C0001507  -1.600000000000e+02
    X0000758  C0001508  -1.000000000000e+00
    X0000758  OBJ        2.000000000000e+03
    MARK      'MARKER'                 'INTEND'
    MARK      'MARKER'                 'INTORG'
    X0000759  C0001511  -1.600000000000e+02
    X0000759  C0001512  -1.000000000000e+00
    X0000759  OBJ        2.000000000000e+03
    MARK      'MARKER'                 'INTEND'
    MARK      'MARKER'                 'INTORG'
    X0000760  C0001515  -1.600000000000e+02
    X0000760  C0001516  -1.000000000000e+00
    X0000760  OBJ        2.000000000000e+03
    MARK      'MARKER'                 'INTEND'
    MARK      'MARKER'                 'INTORG'
    X0000761  C0001519  -1.600000000000e+02
    X0000761  C0001520  -1.000000000000e+00
    X0000761  OBJ        2.000000000000e+03
    MARK      'MARKER'                 'INTEND'
    MARK      'MARKER'                 'INTORG'
    X0000762  C0001523  -1.600000000000e+02
    X0000762  C0001524  -1.000000000000e+00
    X0000762  OBJ        2.000000000000e+03
    MARK      'MARKER'                 'INTEND'
    MARK      'MARKER'                 'INTORG'
    X0000763  C0001527  -1.600000000000e+02
    X0000763  C0001528  -1.000000000000e+00
    X0000763  OBJ        2.000000000000e+03
    MARK      'MARKER'                 'INTEND'
    MARK      'MARKER'                 'INTORG'
    X0000764  C0001532   1.000000000000e+00
    X0000764  OBJ        2.000000000000e+03
    MARK      'MARKER'                 'INTEND'
    MARK      'MARKER'                 'INTORG'
    X0000765  C0001537   1.000000000000e+00
    X0000765  OBJ        2.000000000000e+03
    MARK      'MARKER'                 'INTEND'
    MARK      'MARKER'                 'INTORG'
    X0000766  C0001546  -1.600000000000e+02
    X0000766  C0001547  -1.000000000000e+00
    X0000766  OBJ        2.000000000000e+03
    MARK      'MARKER'                 'INTEND'
    MARK      'MARKER'                 'INTORG'
    X0000767  C0001585   1.000000000000e+00
    X0000767  OBJ        2.000000000000e+03
    MARK      'MARKER'                 'INTEND'
    MARK      'MARKER'                 'INTORG'
    X0000768  C0001550  -1.600000000000e+02
    X0000768  C0001551  -1.000000000000e+00
    X0000768  OBJ        2.000000000000e+03
    MARK      'MARKER'                 'INTEND'
    MARK      'MARKER'                 'INTORG'
    X0000769  C0001554  -1.600000000000e+02
    X0000769  C0001555  -1.000000000000e+00
    X0000769  OBJ        2.000000000000e+03
    MARK      'MARKER'                 'INTEND'
    MARK      'MARKER'                 'INTORG'
    X0000770  C0001558  -1.600000000000e+02
    X0000770  C0001559  -1.000000000000e+00
    X0000770  OBJ        2.000000000000e+03
    MARK      'MARKER'                 'INTEND'
    MARK      'MARKER'                 'INTORG'
    X0000771  C0001562  -1.600000000000e+02
    X0000771  C0001563  -1.000000000000e+00
    X0000771  OBJ        2.000000000000e+03
    MARK      'MARKER'                 'INTEND'
    MARK      'MARKER'                 'INTORG'
    X0000772  C0001566  -1.600000000000e+02
    X0000772  C0001567  -1.000000000000e+00
    X0000772  OBJ        2.000000000000e+03
    MARK      'MARKER'                 'INTEND'
    MARK      'MARKER'                 'INTORG'
    X0000773  C0001570  -1.600000000000e+02
    X0000773  C0001571  -1.000000000000e+00
    X0000773  OBJ        2.000000000000e+03
    MARK      'MARKER'                 'INTEND'
    MARK      'MARKER'                 'INTORG'
    X0000774  C0001575   1.000000000000e+00
    X0000774  OBJ        2.000000000000e+03
    MARK      'MARKER'                 'INTEND'
    MARK      'MARKER'                 'INTORG'
    X0000775  C0001580   1.000000000000e+00
    X0000775  OBJ        2.000000000000e+03
    MARK      'MARKER'                 'INTEND'
    MARK      'MARKER'                 'INTORG'
    X0000776  C0001589  -1.600000000000e+02
    X0000776  C0001590  -1.000000000000e+00
    X0000776  OBJ        2.000000000000e+03
    MARK      'MARKER'                 'INTEND'
    MARK      'MARKER'                 'INTORG'
    X0000777  C0001628   1.000000000000e+00
    X0000777  OBJ        2.000000000000e+03
    MARK      'MARKER'                 'INTEND'
    MARK      'MARKER'                 'INTORG'
    X0000778  C0001593  -1.600000000000e+02
    X0000778  C0001594  -1.000000000000e+00
    X0000778  OBJ        2.000000000000e+03
    MARK      'MARKER'                 'INTEND'
    MARK      'MARKER'                 'INTORG'
    X0000779  C0001597  -1.600000000000e+02
    X0000779  C0001598  -1.000000000000e+00
    X0000779  OBJ        2.000000000000e+03
    MARK      'MARKER'                 'INTEND'
    MARK      'MARKER'                 'INTORG'
    X0000780  C0001601  -1.600000000000e+02
    X0000780  C0001602  -1.000000000000e+00
    X0000780  OBJ        2.000000000000e+03
    MARK      'MARKER'                 'INTEND'
    MARK      'MARKER'                 'INTORG'
    X0000781  C0001605  -1.600000000000e+02
    X0000781  C0001606  -1.000000000000e+00
    X0000781  OBJ        2.000000000000e+03
    MARK      'MARKER'                 'INTEND'
    MARK      'MARKER'                 'INTORG'
    X0000782  C0001609  -1.600000000000e+02
    X0000782  C0001610  -1.000000000000e+00
    X0000782  OBJ        2.000000000000e+03
    MARK      'MARKER'                 'INTEND'
    MARK      'MARKER'                 'INTORG'
    X0000783  C0001613  -1.600000000000e+02
    X0000783  C0001614  -1.000000000000e+00
    X0000783  OBJ        2.000000000000e+03
    MARK      'MARKER'                 'INTEND'
    MARK      'MARKER'                 'INTORG'
    X0000784  C0001618   1.000000000000e+00
    X0000784  OBJ        2.000000000000e+03
    MARK      'MARKER'                 'INTEND'
    MARK      'MARKER'                 'INTORG'
    X0000785  C0001623   1.000000000000e+00
    X0000785  OBJ        2.000000000000e+03
    MARK      'MARKER'                 'INTEND'
    MARK      'MARKER'                 'INTORG'
    X0000786  C0001632  -1.600000000000e+02
    X0000786  C0001633  -1.000000000000e+00
    X0000786  OBJ        2.000000000000e+03
    MARK      'MARKER'                 'INTEND'
    MARK      'MARKER'                 'INTORG'
    X0000787  C0001671   1.000000000000e+00
    X0000787  OBJ        2.000000000000e+03
    MARK      'MARKER'                 'INTEND'
    MARK      'MARKER'                 'INTORG'
    X0000788  C0001636  -1.600000000000e+02
    X0000788  C0001637  -1.000000000000e+00
    X0000788  OBJ        2.000000000000e+03
    MARK      'MARKER'                 'INTEND'
    MARK      'MARKER'                 'INTORG'
    X0000789  C0001640  -1.600000000000e+02
    X0000789  C0001641  -1.000000000000e+00
    X0000789  OBJ        2.000000000000e+03
    MARK      'MARKER'                 'INTEND'
    MARK      'MARKER'                 'INTORG'
    X0000790  C0001644  -1.600000000000e+02
    X0000790  C0001645  -1.000000000000e+00
    X0000790  OBJ        2.000000000000e+03
    MARK      'MARKER'                 'INTEND'
    MARK      'MARKER'                 'INTORG'
    X0000791  C0001648  -1.600000000000e+02
    X0000791  C0001649  -1.000000000000e+00
    X0000791  OBJ        2.000000000000e+03
    MARK      'MARKER'                 'INTEND'
    MARK      'MARKER'                 'INTORG'
    X0000792  C0001652  -1.600000000000e+02
    X0000792  C0001653  -1.000000000000e+00
    X0000792  OBJ        2.000000000000e+03
    MARK      'MARKER'                 'INTEND'
    MARK      'MARKER'                 'INTORG'
    X0000793  C0001656  -1.600000000000e+02
    X0000793  C0001657  -1.000000000000e+00
    X0000793  OBJ        2.000000000000e+03
    MARK      'MARKER'                 'INTEND'
    MARK      'MARKER'                 'INTORG'
    X0000794  C0001661   1.000000000000e+00
    X0000794  OBJ        2.000000000000e+03
    MARK      'MARKER'                 'INTEND'
    MARK      'MARKER'                 'INTORG'
    X0000795  C0001666   1.000000000000e+00
    X0000795  OBJ        2.000000000000e+03
    MARK      'MARKER'                 'INTEND'
    MARK      'MARKER'                 'INTORG'
    X0000796  C0001675  -1.600000000000e+02
    X0000796  C0001676  -1.000000000000e+00
    X0000796  OBJ        2.000000000000e+03
    MARK      'MARKER'                 'INTEND'
    MARK      'MARKER'                 'INTORG'
    X0000797  C0001714   1.000000000000e+00
    X0000797  OBJ        2.000000000000e+03
    MARK      'MARKER'                 'INTEND'
    MARK      'MARKER'                 'INTORG'
    X0000798  C0001679  -1.600000000000e+02
    X0000798  C0001680  -1.000000000000e+00
    X0000798  OBJ        2.000000000000e+03
    MARK      'MARKER'                 'INTEND'
    MARK      'MARKER'                 'INTORG'
    X0000799  C0001683  -1.600000000000e+02
    X0000799  C0001684  -1.000000000000e+00
    X0000799  OBJ        2.000000000000e+03
    MARK      'MARKER'                 'INTEND'
    MARK      'MARKER'                 'INTORG'
    X0000800  C0001687  -1.600000000000e+02
    X0000800  C0001688  -1.000000000000e+00
    X0000800  OBJ        2.000000000000e+03
    MARK      'MARKER'                 'INTEND'
    MARK      'MARKER'                 'INTORG'
    X0000801  C0001691  -1.600000000000e+02
    X0000801  C0001692  -1.000000000000e+00
    X0000801  OBJ        2.000000000000e+03
    MARK      'MARKER'                 'INTEND'
    MARK      'MARKER'                 'INTORG'
    X0000802  C0001695  -1.600000000000e+02
    X0000802  C0001696  -1.000000000000e+00
    X0000802  OBJ        2.000000000000e+03
    MARK      'MARKER'                 'INTEND'
    MARK      'MARKER'                 'INTORG'
    X0000803  C0001699  -1.600000000000e+02
    X0000803  C0001700  -1.000000000000e+00
    X0000803  OBJ        2.000000000000e+03
    MARK      'MARKER'                 'INTEND'
    MARK      'MARKER'                 'INTORG'
    X0000804  C0001704   1.000000000000e+00
    X0000804  OBJ        2.000000000000e+03
    MARK      'MARKER'                 'INTEND'
    MARK      'MARKER'                 'INTORG'
    X0000805  C0001709   1.000000000000e+00
    X0000805  OBJ        2.000000000000e+03
    MARK      'MARKER'                 'INTEND'
    MARK      'MARKER'                 'INTORG'
    X0000806  C0001718  -1.600000000000e+02
    X0000806  C0001719  -1.000000000000e+00
    X0000806  OBJ        2.000000000000e+03
    MARK      'MARKER'                 'INTEND'
    MARK      'MARKER'                 'INTORG'
    X0000807  C0001757   1.000000000000e+00
    X0000807  OBJ        2.000000000000e+03
    MARK      'MARKER'                 'INTEND'
    MARK      'MARKER'                 'INTORG'
    X0000808  C0001722  -1.600000000000e+02
    X0000808  C0001723  -1.000000000000e+00
    X0000808  OBJ        2.000000000000e+03
    MARK      'MARKER'                 'INTEND'
    MARK      'MARKER'                 'INTORG'
    X0000809  C0001726  -1.600000000000e+02
    X0000809  C0001727  -1.000000000000e+00
    X0000809  OBJ        2.000000000000e+03
    MARK      'MARKER'                 'INTEND'
    MARK      'MARKER'                 'INTORG'
    X0000810  C0001730  -1.600000000000e+02
    X0000810  C0001731  -1.000000000000e+00
    X0000810  OBJ        2.000000000000e+03
    MARK      'MARKER'                 'INTEND'
    MARK      'MARKER'                 'INTORG'
    X0000811  C0001734  -1.600000000000e+02
    X0000811  C0001735  -1.000000000000e+00
    X0000811  OBJ        2.000000000000e+03
    MARK      'MARKER'                 'INTEND'
    MARK      'MARKER'                 'INTORG'
    X0000812  C0001738  -1.600000000000e+02
    X0000812  C0001739  -1.000000000000e+00
    X0000812  OBJ        2.000000000000e+03
    MARK      'MARKER'                 'INTEND'
    MARK      'MARKER'                 'INTORG'
    X0000813  C0001742  -1.600000000000e+02
    X0000813  C0001743  -1.000000000000e+00
    X0000813  OBJ        2.000000000000e+03
    MARK      'MARKER'                 'INTEND'
    MARK      'MARKER'                 'INTORG'
    X0000814  C0001747   1.000000000000e+00
    X0000814  OBJ        2.000000000000e+03
    MARK      'MARKER'                 'INTEND'
    MARK      'MARKER'                 'INTORG'
    X0000815  C0001752   1.000000000000e+00
    X0000815  OBJ        2.000000000000e+03
    MARK      'MARKER'                 'INTEND'
    MARK      'MARKER'                 'INTORG'
    X0000816  C0001761  -1.600000000000e+02
    X0000816  C0001762  -1.000000000000e+00
    X0000816  OBJ        2.000000000000e+03
    MARK      'MARKER'                 'INTEND'
    MARK      'MARKER'                 'INTORG'
    X0000817  C0001800   1.000000000000e+00
    X0000817  OBJ        2.000000000000e+03
    MARK      'MARKER'                 'INTEND'
    MARK      'MARKER'                 'INTORG'
    X0000818  C0001765  -1.600000000000e+02
    X0000818  C0001766  -1.000000000000e+00
    X0000818  OBJ        2.000000000000e+03
    MARK      'MARKER'                 'INTEND'
    MARK      'MARKER'                 'INTORG'
    X0000819  C0001769  -1.600000000000e+02
    X0000819  C0001770  -1.000000000000e+00
    X0000819  OBJ        2.000000000000e+03
    MARK      'MARKER'                 'INTEND'
    MARK      'MARKER'                 'INTORG'
    X0000820  C0001773  -1.600000000000e+02
    X0000820  C0001774  -1.000000000000e+00
    X0000820  OBJ        2.000000000000e+03
    MARK      'MARKER'                 'INTEND'
    MARK      'MARKER'                 'INTORG'
    X0000821  C0001777  -1.600000000000e+02
    X0000821  C0001778  -1.000000000000e+00
    X0000821  OBJ        2.000000000000e+03
    MARK      'MARKER'                 'INTEND'
    MARK      'MARKER'                 'INTORG'
    X0000822  C0001781  -1.600000000000e+02
    X0000822  C0001782  -1.000000000000e+00
    X0000822  OBJ        2.000000000000e+03
    MARK      'MARKER'                 'INTEND'
    MARK      'MARKER'                 'INTORG'
    X0000823  C0001785  -1.600000000000e+02
    X0000823  C0001786  -1.000000000000e+00
    X0000823  OBJ        2.000000000000e+03
    MARK      'MARKER'                 'INTEND'
    MARK      'MARKER'                 'INTORG'
    X0000824  C0001790   1.000000000000e+00
    X0000824  OBJ        2.000000000000e+03
    MARK      'MARKER'                 'INTEND'
    MARK      'MARKER'                 'INTORG'
    X0000825  C0001795   1.000000000000e+00
    X0000825  OBJ        2.000000000000e+03
    MARK      'MARKER'                 'INTEND'
    MARK      'MARKER'                 'INTORG'
    X0000826  C0001804  -1.600000000000e+02
    X0000826  C0001805  -1.000000000000e+00
    X0000826  OBJ        2.000000000000e+03
    MARK      'MARKER'                 'INTEND'
    MARK      'MARKER'                 'INTORG'
    X0000827  C0001843   1.000000000000e+00
    X0000827  OBJ        2.000000000000e+03
    MARK      'MARKER'                 'INTEND'
    MARK      'MARKER'                 'INTORG'
    X0000828  C0001808  -1.600000000000e+02
    X0000828  C0001809  -1.000000000000e+00
    X0000828  OBJ        2.000000000000e+03
    MARK      'MARKER'                 'INTEND'
    MARK      'MARKER'                 'INTORG'
    X0000829  C0001812  -1.600000000000e+02
    X0000829  C0001813  -1.000000000000e+00
    X0000829  OBJ        2.000000000000e+03
    MARK      'MARKER'                 'INTEND'
    MARK      'MARKER'                 'INTORG'
    X0000830  C0001816  -1.600000000000e+02
    X0000830  C0001817  -1.000000000000e+00
    X0000830  OBJ        2.000000000000e+03
    MARK      'MARKER'                 'INTEND'
    MARK      'MARKER'                 'INTORG'
    X0000831  C0001820  -1.600000000000e+02
    X0000831  C0001821  -1.000000000000e+00
    X0000831  OBJ        2.000000000000e+03
    MARK      'MARKER'                 'INTEND'
    MARK      'MARKER'                 'INTORG'
    X0000832  C0001824  -1.600000000000e+02
    X0000832  C0001825  -1.000000000000e+00
    X0000832  OBJ        2.000000000000e+03
    MARK      'MARKER'                 'INTEND'
    MARK      'MARKER'                 'INTORG'
    X0000833  C0001828  -1.600000000000e+02
    X0000833  C0001829  -1.000000000000e+00
    X0000833  OBJ        2.000000000000e+03
    MARK      'MARKER'                 'INTEND'
    MARK      'MARKER'                 'INTORG'
    X0000834  C0001833   1.000000000000e+00
    X0000834  OBJ        2.000000000000e+03
    MARK      'MARKER'                 'INTEND'
    MARK      'MARKER'                 'INTORG'
    X0000835  C0001838   1.000000000000e+00
    X0000835  OBJ        2.000000000000e+03
    MARK      'MARKER'                 'INTEND'
    MARK      'MARKER'                 'INTORG'
    X0000836  C0001847  -1.600000000000e+02
    X0000836  C0001848  -1.000000000000e+00
    X0000836  OBJ        2.000000000000e+03
    MARK      'MARKER'                 'INTEND'
    MARK      'MARKER'                 'INTORG'
    X0000837  C0001886   1.000000000000e+00
    X0000837  OBJ        2.000000000000e+03
    MARK      'MARKER'                 'INTEND'
    MARK      'MARKER'                 'INTORG'
    X0000838  C0001851  -1.600000000000e+02
    X0000838  C0001852  -1.000000000000e+00
    X0000838  OBJ        2.000000000000e+03
    MARK      'MARKER'                 'INTEND'
    MARK      'MARKER'                 'INTORG'
    X0000839  C0001855  -1.600000000000e+02
    X0000839  C0001856  -1.000000000000e+00
    X0000839  OBJ        2.000000000000e+03
    MARK      'MARKER'                 'INTEND'
    MARK      'MARKER'                 'INTORG'
    X0000840  C0001859  -1.600000000000e+02
    X0000840  C0001860  -1.000000000000e+00
    X0000840  OBJ        2.000000000000e+03
    MARK      'MARKER'                 'INTEND'
    MARK      'MARKER'                 'INTORG'
    X0000841  C0001863  -1.600000000000e+02
    X0000841  C0001864  -1.000000000000e+00
    X0000841  OBJ        2.000000000000e+03
    MARK      'MARKER'                 'INTEND'
    MARK      'MARKER'                 'INTORG'
    X0000842  C0001867  -1.600000000000e+02
    X0000842  C0001868  -1.000000000000e+00
    X0000842  OBJ        2.000000000000e+03
    MARK      'MARKER'                 'INTEND'
    MARK      'MARKER'                 'INTORG'
    X0000843  C0001871  -1.600000000000e+02
    X0000843  C0001872  -1.000000000000e+00
    X0000843  OBJ        2.000000000000e+03
    MARK      'MARKER'                 'INTEND'
    MARK      'MARKER'                 'INTORG'
    X0000844  C0001876   1.000000000000e+00
    X0000844  OBJ        2.000000000000e+03
    MARK      'MARKER'                 'INTEND'
    MARK      'MARKER'                 'INTORG'
    X0000845  C0001881   1.000000000000e+00
    X0000845  OBJ        2.000000000000e+03
    MARK      'MARKER'                 'INTEND'
    MARK      'MARKER'                 'INTORG'
    X0000846  C0001890  -1.600000000000e+02
    X0000846  C0001891  -1.000000000000e+00
    X0000846  OBJ        2.000000000000e+03
    MARK      'MARKER'                 'INTEND'
    MARK      'MARKER'                 'INTORG'
    X0000847  C0001929   1.000000000000e+00
    X0000847  OBJ        2.000000000000e+03
    MARK      'MARKER'                 'INTEND'
    MARK      'MARKER'                 'INTORG'
    X0000848  C0001894  -1.600000000000e+02
    X0000848  C0001895  -1.000000000000e+00
    X0000848  OBJ        2.000000000000e+03
    MARK      'MARKER'                 'INTEND'
    MARK      'MARKER'                 'INTORG'
    X0000849  C0001898  -1.600000000000e+02
    X0000849  C0001899  -1.000000000000e+00
    X0000849  OBJ        2.000000000000e+03
    MARK      'MARKER'                 'INTEND'
    MARK      'MARKER'                 'INTORG'
    X0000850  C0001902  -1.600000000000e+02
    X0000850  C0001903  -1.000000000000e+00
    X0000850  OBJ        2.000000000000e+03
    MARK      'MARKER'                 'INTEND'
    MARK      'MARKER'                 'INTORG'
    X0000851  C0001906  -1.600000000000e+02
    X0000851  C0001907  -1.000000000000e+00
    X0000851  OBJ        2.000000000000e+03
    MARK      'MARKER'                 'INTEND'
    MARK      'MARKER'                 'INTORG'
    X0000852  C0001910  -1.600000000000e+02
    X0000852  C0001911  -1.000000000000e+00
    X0000852  OBJ        2.000000000000e+03
    MARK      'MARKER'                 'INTEND'
    MARK      'MARKER'                 'INTORG'
    X0000853  C0001914  -1.600000000000e+02
    X0000853  C0001915  -1.000000000000e+00
    X0000853  OBJ        2.000000000000e+03
    MARK      'MARKER'                 'INTEND'
    MARK      'MARKER'                 'INTORG'
    X0000854  C0001919   1.000000000000e+00
    X0000854  OBJ        2.000000000000e+03
    MARK      'MARKER'                 'INTEND'
    MARK      'MARKER'                 'INTORG'
    X0000855  C0001924   1.000000000000e+00
    X0000855  OBJ        2.000000000000e+03
    MARK      'MARKER'                 'INTEND'
    MARK      'MARKER'                 'INTORG'
    X0000856  C0001933  -1.600000000000e+02
    X0000856  C0001934  -1.000000000000e+00
    X0000856  OBJ        2.000000000000e+03
    MARK      'MARKER'                 'INTEND'
    MARK      'MARKER'                 'INTORG'
    X0000857  C0001972   1.000000000000e+00
    X0000857  OBJ        2.000000000000e+03
    MARK      'MARKER'                 'INTEND'
    MARK      'MARKER'                 'INTORG'
    X0000858  C0001937  -1.600000000000e+02
    X0000858  C0001938  -1.000000000000e+00
    X0000858  OBJ        2.000000000000e+03
    MARK      'MARKER'                 'INTEND'
    MARK      'MARKER'                 'INTORG'
    X0000859  C0001941  -1.600000000000e+02
    X0000859  C0001942  -1.000000000000e+00
    X0000859  OBJ        2.000000000000e+03
    MARK      'MARKER'                 'INTEND'
    MARK      'MARKER'                 'INTORG'
    X0000860  C0001945  -1.600000000000e+02
    X0000860  C0001946  -1.000000000000e+00
    X0000860  OBJ        2.000000000000e+03
    MARK      'MARKER'                 'INTEND'
    MARK      'MARKER'                 'INTORG'
    X0000861  C0001949  -1.600000000000e+02
    X0000861  C0001950  -1.000000000000e+00
    X0000861  OBJ        2.000000000000e+03
    MARK      'MARKER'                 'INTEND'
    MARK      'MARKER'                 'INTORG'
    X0000862  C0001953  -1.600000000000e+02
    X0000862  C0001954  -1.000000000000e+00
    X0000862  OBJ        2.000000000000e+03
    MARK      'MARKER'                 'INTEND'
    MARK      'MARKER'                 'INTORG'
    X0000863  C0001957  -1.600000000000e+02
    X0000863  C0001958  -1.000000000000e+00
    X0000863  OBJ        2.000000000000e+03
    MARK      'MARKER'                 'INTEND'
    MARK      'MARKER'                 'INTORG'
    X0000864  C0001962   1.000000000000e+00
    X0000864  OBJ        2.000000000000e+03
    MARK      'MARKER'                 'INTEND'
    MARK      'MARKER'                 'INTORG'
    X0000865  C0001967   1.000000000000e+00
    X0000865  OBJ        2.000000000000e+03
    MARK      'MARKER'                 'INTEND'
    MARK      'MARKER'                 'INTORG'
    X0000866  C0001976  -1.600000000000e+02
    X0000866  C0001977  -1.000000000000e+00
    X0000866  OBJ        2.000000000000e+03
    MARK      'MARKER'                 'INTEND'
    MARK      'MARKER'                 'INTORG'
    X0000867  C0002015   1.000000000000e+00
    X0000867  OBJ        2.000000000000e+03
    MARK      'MARKER'                 'INTEND'
    MARK      'MARKER'                 'INTORG'
    X0000868  C0001980  -1.600000000000e+02
    X0000868  C0001981  -1.000000000000e+00
    X0000868  OBJ        2.000000000000e+03
    MARK      'MARKER'                 'INTEND'
    MARK      'MARKER'                 'INTORG'
    X0000869  C0001984  -1.600000000000e+02
    X0000869  C0001985  -1.000000000000e+00
    X0000869  OBJ        2.000000000000e+03
    MARK      'MARKER'                 'INTEND'
    MARK      'MARKER'                 'INTORG'
    X0000870  C0001988  -1.600000000000e+02
    X0000870  C0001989  -1.000000000000e+00
    X0000870  OBJ        2.000000000000e+03
    MARK      'MARKER'                 'INTEND'
    MARK      'MARKER'                 'INTORG'
    X0000871  C0001992  -1.600000000000e+02
    X0000871  C0001993  -1.000000000000e+00
    X0000871  OBJ        2.000000000000e+03
    MARK      'MARKER'                 'INTEND'
    MARK      'MARKER'                 'INTORG'
    X0000872  C0001996  -1.600000000000e+02
    X0000872  C0001997  -1.000000000000e+00
    X0000872  OBJ        2.000000000000e+03
    MARK      'MARKER'                 'INTEND'
    MARK      'MARKER'                 'INTORG'
    X0000873  C0002000  -1.600000000000e+02
    X0000873  C0002001  -1.000000000000e+00
    X0000873  OBJ        2.000000000000e+03
    MARK      'MARKER'                 'INTEND'
    MARK      'MARKER'                 'INTORG'
    X0000874  C0002005   1.000000000000e+00
    X0000874  OBJ        2.000000000000e+03
    MARK      'MARKER'                 'INTEND'
    MARK      'MARKER'                 'INTORG'
    X0000875  C0002010   1.000000000000e+00
    X0000875  OBJ        2.000000000000e+03
    MARK      'MARKER'                 'INTEND'
    MARK      'MARKER'                 'INTORG'
    X0000876  C0002019  -1.600000000000e+02
    X0000876  C0002020  -1.000000000000e+00
    X0000876  OBJ        2.000000000000e+03
    MARK      'MARKER'                 'INTEND'
    MARK      'MARKER'                 'INTORG'
    X0000877  C0002058   1.000000000000e+00
    X0000877  OBJ        2.000000000000e+03
    MARK      'MARKER'                 'INTEND'
    MARK      'MARKER'                 'INTORG'
    X0000878  C0002023  -1.600000000000e+02
    X0000878  C0002024  -1.000000000000e+00
    X0000878  OBJ        2.000000000000e+03
    MARK      'MARKER'                 'INTEND'
    MARK      'MARKER'                 'INTORG'
    X0000879  C0002027  -1.600000000000e+02
    X0000879  C0002028  -1.000000000000e+00
    X0000879  OBJ        2.000000000000e+03
    MARK      'MARKER'                 'INTEND'
    MARK      'MARKER'                 'INTORG'
    X0000880  C0002031  -1.600000000000e+02
    X0000880  C0002032  -1.000000000000e+00
    X0000880  OBJ        2.000000000000e+03
    MARK      'MARKER'                 'INTEND'
    MARK      'MARKER'                 'INTORG'
    X0000881  C0002035  -1.600000000000e+02
    X0000881  C0002036  -1.000000000000e+00
    X0000881  OBJ        2.000000000000e+03
    MARK      'MARKER'                 'INTEND'
    MARK      'MARKER'                 'INTORG'
    X0000882  C0002039  -1.600000000000e+02
    X0000882  C0002040  -1.000000000000e+00
    X0000882  OBJ        2.000000000000e+03
    MARK      'MARKER'                 'INTEND'
    MARK      'MARKER'                 'INTORG'
    X0000883  C0002043  -1.600000000000e+02
    X0000883  C0002044  -1.000000000000e+00
    X0000883  OBJ        2.000000000000e+03
    MARK      'MARKER'                 'INTEND'
    MARK      'MARKER'                 'INTORG'
    X0000884  C0002048   1.000000000000e+00
    X0000884  OBJ        2.000000000000e+03
    MARK      'MARKER'                 'INTEND'
    MARK      'MARKER'                 'INTORG'
    X0000885  C0002053   1.000000000000e+00
    X0000885  OBJ        2.000000000000e+03
    MARK      'MARKER'                 'INTEND'
    MARK      'MARKER'                 'INTORG'
    X0000886  C0002062  -1.600000000000e+02
    X0000886  C0002063  -1.000000000000e+00
    X0000886  OBJ        2.000000000000e+03
    MARK      'MARKER'                 'INTEND'
    MARK      'MARKER'                 'INTORG'
    X0000887  C0002101   1.000000000000e+00
    X0000887  OBJ        2.000000000000e+03
    MARK      'MARKER'                 'INTEND'
    MARK      'MARKER'                 'INTORG'
    X0000888  C0002066  -1.600000000000e+02
    X0000888  C0002067  -1.000000000000e+00
    X0000888  OBJ        2.000000000000e+03
    MARK      'MARKER'                 'INTEND'
    MARK      'MARKER'                 'INTORG'
    X0000889  C0002070  -1.600000000000e+02
    X0000889  C0002071  -1.000000000000e+00
    X0000889  OBJ        2.000000000000e+03
    MARK      'MARKER'                 'INTEND'
    MARK      'MARKER'                 'INTORG'
    X0000890  C0002074  -1.600000000000e+02
    X0000890  C0002075  -1.000000000000e+00
    X0000890  OBJ        2.000000000000e+03
    MARK      'MARKER'                 'INTEND'
    MARK      'MARKER'                 'INTORG'
    X0000891  C0002078  -1.600000000000e+02
    X0000891  C0002079  -1.000000000000e+00
    X0000891  OBJ        2.000000000000e+03
    MARK      'MARKER'                 'INTEND'
    MARK      'MARKER'                 'INTORG'
    X0000892  C0002082  -1.600000000000e+02
    X0000892  C0002083  -1.000000000000e+00
    X0000892  OBJ        2.000000000000e+03
    MARK      'MARKER'                 'INTEND'
    MARK      'MARKER'                 'INTORG'
    X0000893  C0002086  -1.600000000000e+02
    X0000893  C0002087  -1.000000000000e+00
    X0000893  OBJ        2.000000000000e+03
    MARK      'MARKER'                 'INTEND'
    MARK      'MARKER'                 'INTORG'
    X0000894  C0002091   1.000000000000e+00
    X0000894  OBJ        2.000000000000e+03
    MARK      'MARKER'                 'INTEND'
    MARK      'MARKER'                 'INTORG'
    X0000895  C0002096   1.000000000000e+00
    X0000895  OBJ        2.000000000000e+03
    MARK      'MARKER'                 'INTEND'
    MARK      'MARKER'                 'INTORG'
    X0000896  C0002105  -1.600000000000e+02
    X0000896  C0002106  -1.000000000000e+00
    X0000896  OBJ        2.000000000000e+03
    MARK      'MARKER'                 'INTEND'
    MARK      'MARKER'                 'INTORG'
    X0000897  C0002144   1.000000000000e+00
    X0000897  OBJ        2.000000000000e+03
    MARK      'MARKER'                 'INTEND'
    MARK      'MARKER'                 'INTORG'
    X0000898  C0002109  -1.600000000000e+02
    X0000898  C0002110  -1.000000000000e+00
    X0000898  OBJ        2.000000000000e+03
    MARK      'MARKER'                 'INTEND'
    MARK      'MARKER'                 'INTORG'
    X0000899  C0002113  -1.600000000000e+02
    X0000899  C0002114  -1.000000000000e+00
    X0000899  OBJ        2.000000000000e+03
    MARK      'MARKER'                 'INTEND'
    MARK      'MARKER'                 'INTORG'
    X0000900  C0002117  -1.600000000000e+02
    X0000900  C0002118  -1.000000000000e+00
    X0000900  OBJ        2.000000000000e+03
    MARK      'MARKER'                 'INTEND'
    MARK      'MARKER'                 'INTORG'
    X0000901  C0002121  -1.600000000000e+02
    X0000901  C0002122  -1.000000000000e+00
    X0000901  OBJ        2.000000000000e+03
    MARK      'MARKER'                 'INTEND'
    MARK      'MARKER'                 'INTORG'
    X0000902  C0002125  -1.600000000000e+02
    X0000902  C0002126  -1.000000000000e+00
    X0000902  OBJ        2.000000000000e+03
    MARK      'MARKER'                 'INTEND'
    MARK      'MARKER'                 'INTORG'
    X0000903  C0002129  -1.600000000000e+02
    X0000903  C0002130  -1.000000000000e+00
    X0000903  OBJ        2.000000000000e+03
    MARK      'MARKER'                 'INTEND'
    MARK      'MARKER'                 'INTORG'
    X0000904  C0002134   1.000000000000e+00
    X0000904  OBJ        2.000000000000e+03
    MARK      'MARKER'                 'INTEND'
    MARK      'MARKER'                 'INTORG'
    X0000905  C0002139   1.000000000000e+00
    X0000905  OBJ        2.000000000000e+03
    MARK      'MARKER'                 'INTEND'
    MARK      'MARKER'                 'INTORG'
    X0000906  C0000006  -1.000000000000e+01
    MARK      'MARKER'                 'INTEND'
    MARK      'MARKER'                 'INTORG'
    X0000907  C0000015  -1.000000000000e+01
    MARK      'MARKER'                 'INTEND'
    MARK      'MARKER'                 'INTORG'
    X0000908  C0000007  -1.000000000000e+01
    MARK      'MARKER'                 'INTEND'
    MARK      'MARKER'                 'INTORG'
    X0000909  C0000008  -1.000000000000e+01
    MARK      'MARKER'                 'INTEND'
    MARK      'MARKER'                 'INTORG'
    X0000910  C0000009  -1.000000000000e+01
    MARK      'MARKER'                 'INTEND'
    MARK      'MARKER'                 'INTORG'
    X0000911  C0000010  -1.000000000000e+01
    MARK      'MARKER'                 'INTEND'
    MARK      'MARKER'                 'INTORG'
    X0000912  C0000011  -1.000000000000e+01
    MARK      'MARKER'                 'INTEND'
    MARK      'MARKER'                 'INTORG'
    X0000913  C0000012  -1.000000000000e+01
    MARK      'MARKER'                 'INTEND'
    MARK      'MARKER'                 'INTORG'
    X0000914  C0000013  -1.000000000000e+01
    MARK      'MARKER'                 'INTEND'
    MARK      'MARKER'                 'INTORG'
    X0000915  C0000014  -1.000000000000e+01
    MARK      'MARKER'                 'INTEND'
    MARK      'MARKER'                 'INTORG'
    X0000916  C0000016  -1.000000000000e+01
    MARK      'MARKER'                 'INTEND'
    MARK      'MARKER'                 'INTORG'
    X0000917  C0000025  -1.000000000000e+01
    MARK      'MARKER'                 'INTEND'
    MARK      'MARKER'                 'INTORG'
    X0000918  C0000017  -1.000000000000e+01
    MARK      'MARKER'                 'INTEND'
    MARK      'MARKER'                 'INTORG'
    X0000919  C0000018  -1.000000000000e+01
    MARK      'MARKER'                 'INTEND'
    MARK      'MARKER'                 'INTORG'
    X0000920  C0000019  -1.000000000000e+01
    MARK      'MARKER'                 'INTEND'
    MARK      'MARKER'                 'INTORG'
    X0000921  C0000020  -1.000000000000e+01
    MARK      'MARKER'                 'INTEND'
    MARK      'MARKER'                 'INTORG'
    X0000922  C0000021  -1.000000000000e+01
    MARK      'MARKER'                 'INTEND'
    MARK      'MARKER'                 'INTORG'
    X0000923  C0000022  -1.000000000000e+01
    MARK      'MARKER'                 'INTEND'
    MARK      'MARKER'                 'INTORG'
    X0000924  C0000023  -1.000000000000e+01
    MARK      'MARKER'                 'INTEND'
    MARK      'MARKER'                 'INTORG'
    X0000925  C0000024  -1.000000000000e+01
    MARK      'MARKER'                 'INTEND'
    MARK      'MARKER'                 'INTORG'
    X0000926  C0000026  -1.000000000000e+01
    MARK      'MARKER'                 'INTEND'
    MARK      'MARKER'                 'INTORG'
    X0000927  C0000035  -1.000000000000e+01
    MARK      'MARKER'                 'INTEND'
    MARK      'MARKER'                 'INTORG'
    X0000928  C0000027  -1.000000000000e+01
    MARK      'MARKER'                 'INTEND'
    MARK      'MARKER'                 'INTORG'
    X0000929  C0000028  -1.000000000000e+01
    MARK      'MARKER'                 'INTEND'
    MARK      'MARKER'                 'INTORG'
    X0000930  C0000029  -1.000000000000e+01
    MARK      'MARKER'                 'INTEND'
    MARK      'MARKER'                 'INTORG'
    X0000931  C0000030  -1.000000000000e+01
    MARK      'MARKER'                 'INTEND'
    MARK      'MARKER'                 'INTORG'
    X0000932  C0000031  -1.000000000000e+01
    MARK      'MARKER'                 'INTEND'
    MARK      'MARKER'                 'INTORG'
    X0000933  C0000032  -1.000000000000e+01
    MARK      'MARKER'                 'INTEND'
    MARK      'MARKER'                 'INTORG'
    X0000934  C0000033  -1.000000000000e+01
    MARK      'MARKER'                 'INTEND'
    MARK      'MARKER'                 'INTORG'
    X0000935  C0000034  -1.000000000000e+01
    MARK      'MARKER'                 'INTEND'
    MARK      'MARKER'                 'INTORG'
    X0000936  C0000036  -1.000000000000e+01
    MARK      'MARKER'                 'INTEND'
    MARK      'MARKER'                 'INTORG'
    X0000937  C0000045  -1.000000000000e+01
    MARK      'MARKER'                 'INTEND'
    MARK      'MARKER'                 'INTORG'
    X0000938  C0000037  -1.000000000000e+01
    MARK      'MARKER'                 'INTEND'
    MARK      'MARKER'                 'INTORG'
    X0000939  C0000038  -1.000000000000e+01
    MARK      'MARKER'                 'INTEND'
    MARK      'MARKER'                 'INTORG'
    X0000940  C0000039  -1.000000000000e+01
    MARK      'MARKER'                 'INTEND'
    MARK      'MARKER'                 'INTORG'
    X0000941  C0000040  -1.000000000000e+01
    MARK      'MARKER'                 'INTEND'
    MARK      'MARKER'                 'INTORG'
    X0000942  C0000041  -1.000000000000e+01
    MARK      'MARKER'                 'INTEND'
    MARK      'MARKER'                 'INTORG'
    X0000943  C0000042  -1.000000000000e+01
    MARK      'MARKER'                 'INTEND'
    MARK      'MARKER'                 'INTORG'
    X0000944  C0000043  -1.000000000000e+01
    MARK      'MARKER'                 'INTEND'
    MARK      'MARKER'                 'INTORG'
    X0000945  C0000044  -1.000000000000e+01
    MARK      'MARKER'                 'INTEND'
    MARK      'MARKER'                 'INTORG'
    X0000946  C0000046  -1.000000000000e+01
    MARK      'MARKER'                 'INTEND'
    MARK      'MARKER'                 'INTORG'
    X0000947  C0000055  -1.000000000000e+01
    MARK      'MARKER'                 'INTEND'
    MARK      'MARKER'                 'INTORG'
    X0000948  C0000047  -1.000000000000e+01
    MARK      'MARKER'                 'INTEND'
    MARK      'MARKER'                 'INTORG'
    X0000949  C0000048  -1.000000000000e+01
    MARK      'MARKER'                 'INTEND'
    MARK      'MARKER'                 'INTORG'
    X0000950  C0000049  -1.000000000000e+01
    MARK      'MARKER'                 'INTEND'
    MARK      'MARKER'                 'INTORG'
    X0000951  C0000050  -1.000000000000e+01
    MARK      'MARKER'                 'INTEND'
    MARK      'MARKER'                 'INTORG'
    X0000952  C0000051  -1.000000000000e+01
    MARK      'MARKER'                 'INTEND'
    MARK      'MARKER'                 'INTORG'
    X0000953  C0000052  -1.000000000000e+01
    MARK      'MARKER'                 'INTEND'
    MARK      'MARKER'                 'INTORG'
    X0000954  C0000053  -1.000000000000e+01
    MARK      'MARKER'                 'INTEND'
    MARK      'MARKER'                 'INTORG'
    X0000955  C0000054  -1.000000000000e+01
    MARK      'MARKER'                 'INTEND'
    MARK      'MARKER'                 'INTORG'
    X0000956  C0000056  -1.000000000000e+01
    MARK      'MARKER'                 'INTEND'
    MARK      'MARKER'                 'INTORG'
    X0000957  C0000065  -1.000000000000e+01
    MARK      'MARKER'                 'INTEND'
    MARK      'MARKER'                 'INTORG'
    X0000958  C0000057  -1.000000000000e+01
    MARK      'MARKER'                 'INTEND'
    MARK      'MARKER'                 'INTORG'
    X0000959  C0000058  -1.000000000000e+01
    MARK      'MARKER'                 'INTEND'
    MARK      'MARKER'                 'INTORG'
    X0000960  C0000059  -1.000000000000e+01
    MARK      'MARKER'                 'INTEND'
    MARK      'MARKER'                 'INTORG'
    X0000961  C0000060  -1.000000000000e+01
    MARK      'MARKER'                 'INTEND'
    MARK      'MARKER'                 'INTORG'
    X0000962  C0000061  -1.000000000000e+01
    MARK      'MARKER'                 'INTEND'
    MARK      'MARKER'                 'INTORG'
    X0000963  C0000062  -1.000000000000e+01
    MARK      'MARKER'                 'INTEND'
    MARK      'MARKER'                 'INTORG'
    X0000964  C0000063  -1.000000000000e+01
    MARK      'MARKER'                 'INTEND'
    MARK      'MARKER'                 'INTORG'
    X0000965  C0000064  -1.000000000000e+01
    MARK      'MARKER'                 'INTEND'
    MARK      'MARKER'                 'INTORG'
    X0000966  C0000066  -1.000000000000e+01
    MARK      'MARKER'                 'INTEND'
    MARK      'MARKER'                 'INTORG'
    X0000967  C0000075  -1.000000000000e+01
    X0000967  C0000894   1.000000000000e+00
    MARK      'MARKER'                 'INTEND'
    MARK      'MARKER'                 'INTORG'
    X0000968  C0000067  -1.000000000000e+01
    MARK      'MARKER'                 'INTEND'
    MARK      'MARKER'                 'INTORG'
    X0000969  C0000068  -1.000000000000e+01
    MARK      'MARKER'                 'INTEND'
    MARK      'MARKER'                 'INTORG'
    X0000970  C0000069  -1.000000000000e+01
    MARK      'MARKER'                 'INTEND'
    MARK      'MARKER'                 'INTORG'
    X0000971  C0000070  -1.000000000000e+01
    MARK      'MARKER'                 'INTEND'
    MARK      'MARKER'                 'INTORG'
    X0000972  C0000071  -1.000000000000e+01
    MARK      'MARKER'                 'INTEND'
    MARK      'MARKER'                 'INTORG'
    X0000973  C0000072  -1.000000000000e+01
    MARK      'MARKER'                 'INTEND'
    MARK      'MARKER'                 'INTORG'
    X0000974  C0000073  -1.000000000000e+01
    X0000974  C0000884   1.000000000000e+00
    MARK      'MARKER'                 'INTEND'
    MARK      'MARKER'                 'INTORG'
    X0000975  C0000074  -1.000000000000e+01
    X0000975  C0000889   1.000000000000e+00
    MARK      'MARKER'                 'INTEND'
    MARK      'MARKER'                 'INTORG'
    X0000976  C0000076  -1.000000000000e+01
    MARK      'MARKER'                 'INTEND'
    MARK      'MARKER'                 'INTORG'
    X0000977  C0000085  -1.000000000000e+01
    X0000977  C0000937   1.000000000000e+00
    MARK      'MARKER'                 'INTEND'
    MARK      'MARKER'                 'INTORG'
    X0000978  C0000077  -1.000000000000e+01
    MARK      'MARKER'                 'INTEND'
    MARK      'MARKER'                 'INTORG'
    X0000979  C0000078  -1.000000000000e+01
    MARK      'MARKER'                 'INTEND'
    MARK      'MARKER'                 'INTORG'
    X0000980  C0000079  -1.000000000000e+01
    MARK      'MARKER'                 'INTEND'
    MARK      'MARKER'                 'INTORG'
    X0000981  C0000080  -1.000000000000e+01
    MARK      'MARKER'                 'INTEND'
    MARK      'MARKER'                 'INTORG'
    X0000982  C0000081  -1.000000000000e+01
    MARK      'MARKER'                 'INTEND'
    MARK      'MARKER'                 'INTORG'
    X0000983  C0000082  -1.000000000000e+01
    MARK      'MARKER'                 'INTEND'
    MARK      'MARKER'                 'INTORG'
    X0000984  C0000083  -1.000000000000e+01
    X0000984  C0000927   1.000000000000e+00
    MARK      'MARKER'                 'INTEND'
    MARK      'MARKER'                 'INTORG'
    X0000985  C0000084  -1.000000000000e+01
    X0000985  C0000932   1.000000000000e+00
    MARK      'MARKER'                 'INTEND'
    MARK      'MARKER'                 'INTORG'
    X0000986  C0000086  -1.000000000000e+01
    MARK      'MARKER'                 'INTEND'
    MARK      'MARKER'                 'INTORG'
    X0000987  C0000095  -1.000000000000e+01
    X0000987  C0000980   1.000000000000e+00
    MARK      'MARKER'                 'INTEND'
    MARK      'MARKER'                 'INTORG'
    X0000988  C0000087  -1.000000000000e+01
    MARK      'MARKER'                 'INTEND'
    MARK      'MARKER'                 'INTORG'
    X0000989  C0000088  -1.000000000000e+01
    MARK      'MARKER'                 'INTEND'
    MARK      'MARKER'                 'INTORG'
    X0000990  C0000089  -1.000000000000e+01
    MARK      'MARKER'                 'INTEND'
    MARK      'MARKER'                 'INTORG'
    X0000991  C0000090  -1.000000000000e+01
    MARK      'MARKER'                 'INTEND'
    MARK      'MARKER'                 'INTORG'
    X0000992  C0000091  -1.000000000000e+01
    MARK      'MARKER'                 'INTEND'
    MARK      'MARKER'                 'INTORG'
    X0000993  C0000092  -1.000000000000e+01
    MARK      'MARKER'                 'INTEND'
    MARK      'MARKER'                 'INTORG'
    X0000994  C0000093  -1.000000000000e+01
    X0000994  C0000970   1.000000000000e+00
    MARK      'MARKER'                 'INTEND'
    MARK      'MARKER'                 'INTORG'
    X0000995  C0000094  -1.000000000000e+01
    X0000995  C0000975   1.000000000000e+00
    MARK      'MARKER'                 'INTEND'
    MARK      'MARKER'                 'INTORG'
    X0000996  C0000096  -1.000000000000e+01
    MARK      'MARKER'                 'INTEND'
    MARK      'MARKER'                 'INTORG'
    X0000997  C0000105  -1.000000000000e+01
    X0000997  C0001023   1.000000000000e+00
    MARK      'MARKER'                 'INTEND'
    MARK      'MARKER'                 'INTORG'
    X0000998  C0000097  -1.000000000000e+01
    MARK      'MARKER'                 'INTEND'
    MARK      'MARKER'                 'INTORG'
    X0000999  C0000098  -1.000000000000e+01
    MARK      'MARKER'                 'INTEND'
    MARK      'MARKER'                 'INTORG'
    X0001000  C0000099  -1.000000000000e+01
    MARK      'MARKER'                 'INTEND'
    MARK      'MARKER'                 'INTORG'
    X0001001  C0000100  -1.000000000000e+01
    MARK      'MARKER'                 'INTEND'
    MARK      'MARKER'                 'INTORG'
    X0001002  C0000101  -1.000000000000e+01
    MARK      'MARKER'                 'INTEND'
    MARK      'MARKER'                 'INTORG'
    X0001003  C0000102  -1.000000000000e+01
    MARK      'MARKER'                 'INTEND'
    MARK      'MARKER'                 'INTORG'
    X0001004  C0000103  -1.000000000000e+01
    X0001004  C0001013   1.000000000000e+00
    MARK      'MARKER'                 'INTEND'
    MARK      'MARKER'                 'INTORG'
    X0001005  C0000104  -1.000000000000e+01
    X0001005  C0001018   1.000000000000e+00
    MARK      'MARKER'                 'INTEND'
    MARK      'MARKER'                 'INTORG'
    X0001006  C0000106  -1.000000000000e+01
    MARK      'MARKER'                 'INTEND'
    MARK      'MARKER'                 'INTORG'
    X0001007  C0000115  -1.000000000000e+01
    X0001007  C0001066   1.000000000000e+00
    MARK      'MARKER'                 'INTEND'
    MARK      'MARKER'                 'INTORG'
    X0001008  C0000107  -1.000000000000e+01
    MARK      'MARKER'                 'INTEND'
    MARK      'MARKER'                 'INTORG'
    X0001009  C0000108  -1.000000000000e+01
    MARK      'MARKER'                 'INTEND'
    MARK      'MARKER'                 'INTORG'
    X0001010  C0000109  -1.000000000000e+01
    MARK      'MARKER'                 'INTEND'
    MARK      'MARKER'                 'INTORG'
    X0001011  C0000110  -1.000000000000e+01
    MARK      'MARKER'                 'INTEND'
    MARK      'MARKER'                 'INTORG'
    X0001012  C0000111  -1.000000000000e+01
    MARK      'MARKER'                 'INTEND'
    MARK      'MARKER'                 'INTORG'
    X0001013  C0000112  -1.000000000000e+01
    MARK      'MARKER'                 'INTEND'
    MARK      'MARKER'                 'INTORG'
    X0001014  C0000113  -1.000000000000e+01
    X0001014  C0001056   1.000000000000e+00
    MARK      'MARKER'                 'INTEND'
    MARK      'MARKER'                 'INTORG'
    X0001015  C0000114  -1.000000000000e+01
    X0001015  C0001061   1.000000000000e+00
    MARK      'MARKER'                 'INTEND'
    MARK      'MARKER'                 'INTORG'
    X0001016  C0000116  -1.000000000000e+01
    MARK      'MARKER'                 'INTEND'
    MARK      'MARKER'                 'INTORG'
    X0001017  C0000125  -1.000000000000e+01
    X0001017  C0001109   1.000000000000e+00
    MARK      'MARKER'                 'INTEND'
    MARK      'MARKER'                 'INTORG'
    X0001018  C0000117  -1.000000000000e+01
    MARK      'MARKER'                 'INTEND'
    MARK      'MARKER'                 'INTORG'
    X0001019  C0000118  -1.000000000000e+01
    MARK      'MARKER'                 'INTEND'
    MARK      'MARKER'                 'INTORG'
    X0001020  C0000119  -1.000000000000e+01
    MARK      'MARKER'                 'INTEND'
    MARK      'MARKER'                 'INTORG'
    X0001021  C0000120  -1.000000000000e+01
    MARK      'MARKER'                 'INTEND'
    MARK      'MARKER'                 'INTORG'
    X0001022  C0000121  -1.000000000000e+01
    MARK      'MARKER'                 'INTEND'
    MARK      'MARKER'                 'INTORG'
    X0001023  C0000122  -1.000000000000e+01
    MARK      'MARKER'                 'INTEND'
    MARK      'MARKER'                 'INTORG'
    X0001024  C0000123  -1.000000000000e+01
    X0001024  C0001099   1.000000000000e+00
    MARK      'MARKER'                 'INTEND'
    MARK      'MARKER'                 'INTORG'
    X0001025  C0000124  -1.000000000000e+01
    X0001025  C0001104   1.000000000000e+00
    MARK      'MARKER'                 'INTEND'
    MARK      'MARKER'                 'INTORG'
    X0001026  C0000126  -1.000000000000e+01
    MARK      'MARKER'                 'INTEND'
    MARK      'MARKER'                 'INTORG'
    X0001027  C0000135  -1.000000000000e+01
    X0001027  C0001152   1.000000000000e+00
    MARK      'MARKER'                 'INTEND'
    MARK      'MARKER'                 'INTORG'
    X0001028  C0000127  -1.000000000000e+01
    MARK      'MARKER'                 'INTEND'
    MARK      'MARKER'                 'INTORG'
    X0001029  C0000128  -1.000000000000e+01
    MARK      'MARKER'                 'INTEND'
    MARK      'MARKER'                 'INTORG'
    X0001030  C0000129  -1.000000000000e+01
    MARK      'MARKER'                 'INTEND'
    MARK      'MARKER'                 'INTORG'
    X0001031  C0000130  -1.000000000000e+01
    MARK      'MARKER'                 'INTEND'
    MARK      'MARKER'                 'INTORG'
    X0001032  C0000131  -1.000000000000e+01
    MARK      'MARKER'                 'INTEND'
    MARK      'MARKER'                 'INTORG'
    X0001033  C0000132  -1.000000000000e+01
    MARK      'MARKER'                 'INTEND'
    MARK      'MARKER'                 'INTORG'
    X0001034  C0000133  -1.000000000000e+01
    X0001034  C0001142   1.000000000000e+00
    MARK      'MARKER'                 'INTEND'
    MARK      'MARKER'                 'INTORG'
    X0001035  C0000134  -1.000000000000e+01
    X0001035  C0001147   1.000000000000e+00
    MARK      'MARKER'                 'INTEND'
    MARK      'MARKER'                 'INTORG'
    X0001036  C0000136  -1.000000000000e+01
    MARK      'MARKER'                 'INTEND'
    MARK      'MARKER'                 'INTORG'
    X0001037  C0000145  -1.000000000000e+01
    X0001037  C0001195   1.000000000000e+00
    MARK      'MARKER'                 'INTEND'
    MARK      'MARKER'                 'INTORG'
    X0001038  C0000137  -1.000000000000e+01
    MARK      'MARKER'                 'INTEND'
    MARK      'MARKER'                 'INTORG'
    X0001039  C0000138  -1.000000000000e+01
    MARK      'MARKER'                 'INTEND'
    MARK      'MARKER'                 'INTORG'
    X0001040  C0000139  -1.000000000000e+01
    MARK      'MARKER'                 'INTEND'
    MARK      'MARKER'                 'INTORG'
    X0001041  C0000140  -1.000000000000e+01
    MARK      'MARKER'                 'INTEND'
    MARK      'MARKER'                 'INTORG'
    X0001042  C0000141  -1.000000000000e+01
    MARK      'MARKER'                 'INTEND'
    MARK      'MARKER'                 'INTORG'
    X0001043  C0000142  -1.000000000000e+01
    MARK      'MARKER'                 'INTEND'
    MARK      'MARKER'                 'INTORG'
    X0001044  C0000143  -1.000000000000e+01
    X0001044  C0001185   1.000000000000e+00
    MARK      'MARKER'                 'INTEND'
    MARK      'MARKER'                 'INTORG'
    X0001045  C0000144  -1.000000000000e+01
    X0001045  C0001190   1.000000000000e+00
    MARK      'MARKER'                 'INTEND'
    MARK      'MARKER'                 'INTORG'
    X0001046  C0000146  -1.000000000000e+01
    MARK      'MARKER'                 'INTEND'
    MARK      'MARKER'                 'INTORG'
    X0001047  C0000155  -1.000000000000e+01
    X0001047  C0001238   1.000000000000e+00
    MARK      'MARKER'                 'INTEND'
    MARK      'MARKER'                 'INTORG'
    X0001048  C0000147  -1.000000000000e+01
    MARK      'MARKER'                 'INTEND'
    MARK      'MARKER'                 'INTORG'
    X0001049  C0000148  -1.000000000000e+01
    MARK      'MARKER'                 'INTEND'
    MARK      'MARKER'                 'INTORG'
    X0001050  C0000149  -1.000000000000e+01
    MARK      'MARKER'                 'INTEND'
    MARK      'MARKER'                 'INTORG'
    X0001051  C0000150  -1.000000000000e+01
    MARK      'MARKER'                 'INTEND'
    MARK      'MARKER'                 'INTORG'
    X0001052  C0000151  -1.000000000000e+01
    MARK      'MARKER'                 'INTEND'
    MARK      'MARKER'                 'INTORG'
    X0001053  C0000152  -1.000000000000e+01
    MARK      'MARKER'                 'INTEND'
    MARK      'MARKER'                 'INTORG'
    X0001054  C0000153  -1.000000000000e+01
    X0001054  C0001228   1.000000000000e+00
    MARK      'MARKER'                 'INTEND'
    MARK      'MARKER'                 'INTORG'
    X0001055  C0000154  -1.000000000000e+01
    X0001055  C0001233   1.000000000000e+00
    MARK      'MARKER'                 'INTEND'
    MARK      'MARKER'                 'INTORG'
    X0001056  C0000156  -1.000000000000e+01
    MARK      'MARKER'                 'INTEND'
    MARK      'MARKER'                 'INTORG'
    X0001057  C0000165  -1.000000000000e+01
    X0001057  C0001281   1.000000000000e+00
    MARK      'MARKER'                 'INTEND'
    MARK      'MARKER'                 'INTORG'
    X0001058  C0000157  -1.000000000000e+01
    MARK      'MARKER'                 'INTEND'
    MARK      'MARKER'                 'INTORG'
    X0001059  C0000158  -1.000000000000e+01
    MARK      'MARKER'                 'INTEND'
    MARK      'MARKER'                 'INTORG'
    X0001060  C0000159  -1.000000000000e+01
    MARK      'MARKER'                 'INTEND'
    MARK      'MARKER'                 'INTORG'
    X0001061  C0000160  -1.000000000000e+01
    MARK      'MARKER'                 'INTEND'
    MARK      'MARKER'                 'INTORG'
    X0001062  C0000161  -1.000000000000e+01
    MARK      'MARKER'                 'INTEND'
    MARK      'MARKER'                 'INTORG'
    X0001063  C0000162  -1.000000000000e+01
    MARK      'MARKER'                 'INTEND'
    MARK      'MARKER'                 'INTORG'
    X0001064  C0000163  -1.000000000000e+01
    X0001064  C0001271   1.000000000000e+00
    MARK      'MARKER'                 'INTEND'
    MARK      'MARKER'                 'INTORG'
    X0001065  C0000164  -1.000000000000e+01
    X0001065  C0001276   1.000000000000e+00
    MARK      'MARKER'                 'INTEND'
    MARK      'MARKER'                 'INTORG'
    X0001066  C0000166  -1.000000000000e+01
    MARK      'MARKER'                 'INTEND'
    MARK      'MARKER'                 'INTORG'
    X0001067  C0000175  -1.000000000000e+01
    X0001067  C0001324   1.000000000000e+00
    MARK      'MARKER'                 'INTEND'
    MARK      'MARKER'                 'INTORG'
    X0001068  C0000167  -1.000000000000e+01
    MARK      'MARKER'                 'INTEND'
    MARK      'MARKER'                 'INTORG'
    X0001069  C0000168  -1.000000000000e+01
    MARK      'MARKER'                 'INTEND'
    MARK      'MARKER'                 'INTORG'
    X0001070  C0000169  -1.000000000000e+01
    MARK      'MARKER'                 'INTEND'
    MARK      'MARKER'                 'INTORG'
    X0001071  C0000170  -1.000000000000e+01
    MARK      'MARKER'                 'INTEND'
    MARK      'MARKER'                 'INTORG'
    X0001072  C0000171  -1.000000000000e+01
    MARK      'MARKER'                 'INTEND'
    MARK      'MARKER'                 'INTORG'
    X0001073  C0000172  -1.000000000000e+01
    MARK      'MARKER'                 'INTEND'
    MARK      'MARKER'                 'INTORG'
    X0001074  C0000173  -1.000000000000e+01
    X0001074  C0001314   1.000000000000e+00
    MARK      'MARKER'                 'INTEND'
    MARK      'MARKER'                 'INTORG'
    X0001075  C0000174  -1.000000000000e+01
    X0001075  C0001319   1.000000000000e+00
    MARK      'MARKER'                 'INTEND'
    MARK      'MARKER'                 'INTORG'
    X0001076  C0000176  -1.000000000000e+01
    MARK      'MARKER'                 'INTEND'
    MARK      'MARKER'                 'INTORG'
    X0001077  C0000185  -1.000000000000e+01
    X0001077  C0001367   1.000000000000e+00
    MARK      'MARKER'                 'INTEND'
    MARK      'MARKER'                 'INTORG'
    X0001078  C0000177  -1.000000000000e+01
    MARK      'MARKER'                 'INTEND'
    MARK      'MARKER'                 'INTORG'
    X0001079  C0000178  -1.000000000000e+01
    MARK      'MARKER'                 'INTEND'
    MARK      'MARKER'                 'INTORG'
    X0001080  C0000179  -1.000000000000e+01
    MARK      'MARKER'                 'INTEND'
    MARK      'MARKER'                 'INTORG'
    X0001081  C0000180  -1.000000000000e+01
    MARK      'MARKER'                 'INTEND'
    MARK      'MARKER'                 'INTORG'
    X0001082  C0000181  -1.000000000000e+01
    MARK      'MARKER'                 'INTEND'
    MARK      'MARKER'                 'INTORG'
    X0001083  C0000182  -1.000000000000e+01
    MARK      'MARKER'                 'INTEND'
    MARK      'MARKER'                 'INTORG'
    X0001084  C0000183  -1.000000000000e+01
    X0001084  C0001357   1.000000000000e+00
    MARK      'MARKER'                 'INTEND'
    MARK      'MARKER'                 'INTORG'
    X0001085  C0000184  -1.000000000000e+01
    X0001085  C0001362   1.000000000000e+00
    MARK      'MARKER'                 'INTEND'
    MARK      'MARKER'                 'INTORG'
    X0001086  C0000186  -1.000000000000e+01
    MARK      'MARKER'                 'INTEND'
    MARK      'MARKER'                 'INTORG'
    X0001087  C0000195  -1.000000000000e+01
    X0001087  C0001410   1.000000000000e+00
    MARK      'MARKER'                 'INTEND'
    MARK      'MARKER'                 'INTORG'
    X0001088  C0000187  -1.000000000000e+01
    MARK      'MARKER'                 'INTEND'
    MARK      'MARKER'                 'INTORG'
    X0001089  C0000188  -1.000000000000e+01
    MARK      'MARKER'                 'INTEND'
    MARK      'MARKER'                 'INTORG'
    X0001090  C0000189  -1.000000000000e+01
    MARK      'MARKER'                 'INTEND'
    MARK      'MARKER'                 'INTORG'
    X0001091  C0000190  -1.000000000000e+01
    MARK      'MARKER'                 'INTEND'
    MARK      'MARKER'                 'INTORG'
    X0001092  C0000191  -1.000000000000e+01
    MARK      'MARKER'                 'INTEND'
    MARK      'MARKER'                 'INTORG'
    X0001093  C0000192  -1.000000000000e+01
    MARK      'MARKER'                 'INTEND'
    MARK      'MARKER'                 'INTORG'
    X0001094  C0000193  -1.000000000000e+01
    X0001094  C0001400   1.000000000000e+00
    MARK      'MARKER'                 'INTEND'
    MARK      'MARKER'                 'INTORG'
    X0001095  C0000194  -1.000000000000e+01
    X0001095  C0001405   1.000000000000e+00
    MARK      'MARKER'                 'INTEND'
    MARK      'MARKER'                 'INTORG'
    X0001096  C0000196  -1.000000000000e+01
    MARK      'MARKER'                 'INTEND'
    MARK      'MARKER'                 'INTORG'
    X0001097  C0000205  -1.000000000000e+01
    X0001097  C0001453   1.000000000000e+00
    MARK      'MARKER'                 'INTEND'
    MARK      'MARKER'                 'INTORG'
    X0001098  C0000197  -1.000000000000e+01
    MARK      'MARKER'                 'INTEND'
    MARK      'MARKER'                 'INTORG'
    X0001099  C0000198  -1.000000000000e+01
    MARK      'MARKER'                 'INTEND'
    MARK      'MARKER'                 'INTORG'
    X0001100  C0000199  -1.000000000000e+01
    MARK      'MARKER'                 'INTEND'
    MARK      'MARKER'                 'INTORG'
    X0001101  C0000200  -1.000000000000e+01
    MARK      'MARKER'                 'INTEND'
    MARK      'MARKER'                 'INTORG'
    X0001102  C0000201  -1.000000000000e+01
    MARK      'MARKER'                 'INTEND'
    MARK      'MARKER'                 'INTORG'
    X0001103  C0000202  -1.000000000000e+01
    MARK      'MARKER'                 'INTEND'
    MARK      'MARKER'                 'INTORG'
    X0001104  C0000203  -1.000000000000e+01
    X0001104  C0001443   1.000000000000e+00
    MARK      'MARKER'                 'INTEND'
    MARK      'MARKER'                 'INTORG'
    X0001105  C0000204  -1.000000000000e+01
    X0001105  C0001448   1.000000000000e+00
    MARK      'MARKER'                 'INTEND'
    MARK      'MARKER'                 'INTORG'
    X0001106  C0000206  -1.000000000000e+01
    MARK      'MARKER'                 'INTEND'
    MARK      'MARKER'                 'INTORG'
    X0001107  C0000215  -1.000000000000e+01
    X0001107  C0001496   1.000000000000e+00
    MARK      'MARKER'                 'INTEND'
    MARK      'MARKER'                 'INTORG'
    X0001108  C0000207  -1.000000000000e+01
    MARK      'MARKER'                 'INTEND'
    MARK      'MARKER'                 'INTORG'
    X0001109  C0000208  -1.000000000000e+01
    MARK      'MARKER'                 'INTEND'
    MARK      'MARKER'                 'INTORG'
    X0001110  C0000209  -1.000000000000e+01
    MARK      'MARKER'                 'INTEND'
    MARK      'MARKER'                 'INTORG'
    X0001111  C0000210  -1.000000000000e+01
    MARK      'MARKER'                 'INTEND'
    MARK      'MARKER'                 'INTORG'
    X0001112  C0000211  -1.000000000000e+01
    MARK      'MARKER'                 'INTEND'
    MARK      'MARKER'                 'INTORG'
    X0001113  C0000212  -1.000000000000e+01
    MARK      'MARKER'                 'INTEND'
    MARK      'MARKER'                 'INTORG'
    X0001114  C0000213  -1.000000000000e+01
    X0001114  C0001486   1.000000000000e+00
    MARK      'MARKER'                 'INTEND'
    MARK      'MARKER'                 'INTORG'
    X0001115  C0000214  -1.000000000000e+01
    X0001115  C0001491   1.000000000000e+00
    MARK      'MARKER'                 'INTEND'
    MARK      'MARKER'                 'INTORG'
    X0001116  C0000216  -1.000000000000e+01
    MARK      'MARKER'                 'INTEND'
    MARK      'MARKER'                 'INTORG'
    X0001117  C0000225  -1.000000000000e+01
    X0001117  C0001539   1.000000000000e+00
    MARK      'MARKER'                 'INTEND'
    MARK      'MARKER'                 'INTORG'
    X0001118  C0000217  -1.000000000000e+01
    MARK      'MARKER'                 'INTEND'
    MARK      'MARKER'                 'INTORG'
    X0001119  C0000218  -1.000000000000e+01
    MARK      'MARKER'                 'INTEND'
    MARK      'MARKER'                 'INTORG'
    X0001120  C0000219  -1.000000000000e+01
    MARK      'MARKER'                 'INTEND'
    MARK      'MARKER'                 'INTORG'
    X0001121  C0000220  -1.000000000000e+01
    MARK      'MARKER'                 'INTEND'
    MARK      'MARKER'                 'INTORG'
    X0001122  C0000221  -1.000000000000e+01
    MARK      'MARKER'                 'INTEND'
    MARK      'MARKER'                 'INTORG'
    X0001123  C0000222  -1.000000000000e+01
    MARK      'MARKER'                 'INTEND'
    MARK      'MARKER'                 'INTORG'
    X0001124  C0000223  -1.000000000000e+01
    X0001124  C0001529   1.000000000000e+00
    MARK      'MARKER'                 'INTEND'
    MARK      'MARKER'                 'INTORG'
    X0001125  C0000224  -1.000000000000e+01
    X0001125  C0001534   1.000000000000e+00
    MARK      'MARKER'                 'INTEND'
    MARK      'MARKER'                 'INTORG'
    X0001126  C0000226  -1.000000000000e+01
    MARK      'MARKER'                 'INTEND'
    MARK      'MARKER'                 'INTORG'
    X0001127  C0000235  -1.000000000000e+01
    X0001127  C0001582   1.000000000000e+00
    MARK      'MARKER'                 'INTEND'
    MARK      'MARKER'                 'INTORG'
    X0001128  C0000227  -1.000000000000e+01
    MARK      'MARKER'                 'INTEND'
    MARK      'MARKER'                 'INTORG'
    X0001129  C0000228  -1.000000000000e+01
    MARK      'MARKER'                 'INTEND'
    MARK      'MARKER'                 'INTORG'
    X0001130  C0000229  -1.000000000000e+01
    MARK      'MARKER'                 'INTEND'
    MARK      'MARKER'                 'INTORG'
    X0001131  C0000230  -1.000000000000e+01
    MARK      'MARKER'                 'INTEND'
    MARK      'MARKER'                 'INTORG'
    X0001132  C0000231  -1.000000000000e+01
    MARK      'MARKER'                 'INTEND'
    MARK      'MARKER'                 'INTORG'
    X0001133  C0000232  -1.000000000000e+01
    MARK      'MARKER'                 'INTEND'
    MARK      'MARKER'                 'INTORG'
    X0001134  C0000233  -1.000000000000e+01
    X0001134  C0001572   1.000000000000e+00
    MARK      'MARKER'                 'INTEND'
    MARK      'MARKER'                 'INTORG'
    X0001135  C0000234  -1.000000000000e+01
    X0001135  C0001577   1.000000000000e+00
    MARK      'MARKER'                 'INTEND'
    MARK      'MARKER'                 'INTORG'
    X0001136  C0000236  -1.000000000000e+01
    MARK      'MARKER'                 'INTEND'
    MARK      'MARKER'                 'INTORG'
    X0001137  C0000245  -1.000000000000e+01
    X0001137  C0001625   1.000000000000e+00
    MARK      'MARKER'                 'INTEND'
    MARK      'MARKER'                 'INTORG'
    X0001138  C0000237  -1.000000000000e+01
    MARK      'MARKER'                 'INTEND'
    MARK      'MARKER'                 'INTORG'
    X0001139  C0000238  -1.000000000000e+01
    MARK      'MARKER'                 'INTEND'
    MARK      'MARKER'                 'INTORG'
    X0001140  C0000239  -1.000000000000e+01
    MARK      'MARKER'                 'INTEND'
    MARK      'MARKER'                 'INTORG'
    X0001141  C0000240  -1.000000000000e+01
    MARK      'MARKER'                 'INTEND'
    MARK      'MARKER'                 'INTORG'
    X0001142  C0000241  -1.000000000000e+01
    MARK      'MARKER'                 'INTEND'
    MARK      'MARKER'                 'INTORG'
    X0001143  C0000242  -1.000000000000e+01
    MARK      'MARKER'                 'INTEND'
    MARK      'MARKER'                 'INTORG'
    X0001144  C0000243  -1.000000000000e+01
    X0001144  C0001615   1.000000000000e+00
    MARK      'MARKER'                 'INTEND'
    MARK      'MARKER'                 'INTORG'
    X0001145  C0000244  -1.000000000000e+01
    X0001145  C0001620   1.000000000000e+00
    MARK      'MARKER'                 'INTEND'
    MARK      'MARKER'                 'INTORG'
    X0001146  C0000246  -1.000000000000e+01
    MARK      'MARKER'                 'INTEND'
    MARK      'MARKER'                 'INTORG'
    X0001147  C0000255  -1.000000000000e+01
    X0001147  C0001668   1.000000000000e+00
    MARK      'MARKER'                 'INTEND'
    MARK      'MARKER'                 'INTORG'
    X0001148  C0000247  -1.000000000000e+01
    MARK      'MARKER'                 'INTEND'
    MARK      'MARKER'                 'INTORG'
    X0001149  C0000248  -1.000000000000e+01
    MARK      'MARKER'                 'INTEND'
    MARK      'MARKER'                 'INTORG'
    X0001150  C0000249  -1.000000000000e+01
    MARK      'MARKER'                 'INTEND'
    MARK      'MARKER'                 'INTORG'
    X0001151  C0000250  -1.000000000000e+01
    MARK      'MARKER'                 'INTEND'
    MARK      'MARKER'                 'INTORG'
    X0001152  C0000251  -1.000000000000e+01
    MARK      'MARKER'                 'INTEND'
    MARK      'MARKER'                 'INTORG'
    X0001153  C0000252  -1.000000000000e+01
    MARK      'MARKER'                 'INTEND'
    MARK      'MARKER'                 'INTORG'
    X0001154  C0000253  -1.000000000000e+01
    X0001154  C0001658   1.000000000000e+00
    MARK      'MARKER'                 'INTEND'
    MARK      'MARKER'                 'INTORG'
    X0001155  C0000254  -1.000000000000e+01
    X0001155  C0001663   1.000000000000e+00
    MARK      'MARKER'                 'INTEND'
    MARK      'MARKER'                 'INTORG'
    X0001156  C0000256  -1.000000000000e+01
    MARK      'MARKER'                 'INTEND'
    MARK      'MARKER'                 'INTORG'
    X0001157  C0000265  -1.000000000000e+01
    X0001157  C0001711   1.000000000000e+00
    MARK      'MARKER'                 'INTEND'
    MARK      'MARKER'                 'INTORG'
    X0001158  C0000257  -1.000000000000e+01
    MARK      'MARKER'                 'INTEND'
    MARK      'MARKER'                 'INTORG'
    X0001159  C0000258  -1.000000000000e+01
    MARK      'MARKER'                 'INTEND'
    MARK      'MARKER'                 'INTORG'
    X0001160  C0000259  -1.000000000000e+01
    MARK      'MARKER'                 'INTEND'
    MARK      'MARKER'                 'INTORG'
    X0001161  C0000260  -1.000000000000e+01
    MARK      'MARKER'                 'INTEND'
    MARK      'MARKER'                 'INTORG'
    X0001162  C0000261  -1.000000000000e+01
    MARK      'MARKER'                 'INTEND'
    MARK      'MARKER'                 'INTORG'
    X0001163  C0000262  -1.000000000000e+01
    MARK      'MARKER'                 'INTEND'
    MARK      'MARKER'                 'INTORG'
    X0001164  C0000263  -1.000000000000e+01
    X0001164  C0001701   1.000000000000e+00
    MARK      'MARKER'                 'INTEND'
    MARK      'MARKER'                 'INTORG'
    X0001165  C0000264  -1.000000000000e+01
    X0001165  C0001706   1.000000000000e+00
    MARK      'MARKER'                 'INTEND'
    MARK      'MARKER'                 'INTORG'
    X0001166  C0000266  -1.000000000000e+01
    MARK      'MARKER'                 'INTEND'
    MARK      'MARKER'                 'INTORG'
    X0001167  C0000275  -1.000000000000e+01
    X0001167  C0001754   1.000000000000e+00
    MARK      'MARKER'                 'INTEND'
    MARK      'MARKER'                 'INTORG'
    X0001168  C0000267  -1.000000000000e+01
    MARK      'MARKER'                 'INTEND'
    MARK      'MARKER'                 'INTORG'
    X0001169  C0000268  -1.000000000000e+01
    MARK      'MARKER'                 'INTEND'
    MARK      'MARKER'                 'INTORG'
    X0001170  C0000269  -1.000000000000e+01
    MARK      'MARKER'                 'INTEND'
    MARK      'MARKER'                 'INTORG'
    X0001171  C0000270  -1.000000000000e+01
    MARK      'MARKER'                 'INTEND'
    MARK      'MARKER'                 'INTORG'
    X0001172  C0000271  -1.000000000000e+01
    MARK      'MARKER'                 'INTEND'
    MARK      'MARKER'                 'INTORG'
    X0001173  C0000272  -1.000000000000e+01
    MARK      'MARKER'                 'INTEND'
    MARK      'MARKER'                 'INTORG'
    X0001174  C0000273  -1.000000000000e+01
    X0001174  C0001744   1.000000000000e+00
    MARK      'MARKER'                 'INTEND'
    MARK      'MARKER'                 'INTORG'
    X0001175  C0000274  -1.000000000000e+01
    X0001175  C0001749   1.000000000000e+00
    MARK      'MARKER'                 'INTEND'
    MARK      'MARKER'                 'INTORG'
    X0001176  C0000276  -1.000000000000e+01
    MARK      'MARKER'                 'INTEND'
    MARK      'MARKER'                 'INTORG'
    X0001177  C0000285  -1.000000000000e+01
    X0001177  C0001797   1.000000000000e+00
    MARK      'MARKER'                 'INTEND'
    MARK      'MARKER'                 'INTORG'
    X0001178  C0000277  -1.000000000000e+01
    MARK      'MARKER'                 'INTEND'
    MARK      'MARKER'                 'INTORG'
    X0001179  C0000278  -1.000000000000e+01
    MARK      'MARKER'                 'INTEND'
    MARK      'MARKER'                 'INTORG'
    X0001180  C0000279  -1.000000000000e+01
    MARK      'MARKER'                 'INTEND'
    MARK      'MARKER'                 'INTORG'
    X0001181  C0000280  -1.000000000000e+01
    MARK      'MARKER'                 'INTEND'
    MARK      'MARKER'                 'INTORG'
    X0001182  C0000281  -1.000000000000e+01
    MARK      'MARKER'                 'INTEND'
    MARK      'MARKER'                 'INTORG'
    X0001183  C0000282  -1.000000000000e+01
    MARK      'MARKER'                 'INTEND'
    MARK      'MARKER'                 'INTORG'
    X0001184  C0000283  -1.000000000000e+01
    X0001184  C0001787   1.000000000000e+00
    MARK      'MARKER'                 'INTEND'
    MARK      'MARKER'                 'INTORG'
    X0001185  C0000284  -1.000000000000e+01
    X0001185  C0001792   1.000000000000e+00
    MARK      'MARKER'                 'INTEND'
    MARK      'MARKER'                 'INTORG'
    X0001186  C0000286  -1.000000000000e+01
    MARK      'MARKER'                 'INTEND'
    MARK      'MARKER'                 'INTORG'
    X0001187  C0000295  -1.000000000000e+01
    X0001187  C0001840   1.000000000000e+00
    MARK      'MARKER'                 'INTEND'
    MARK      'MARKER'                 'INTORG'
    X0001188  C0000287  -1.000000000000e+01
    MARK      'MARKER'                 'INTEND'
    MARK      'MARKER'                 'INTORG'
    X0001189  C0000288  -1.000000000000e+01
    MARK      'MARKER'                 'INTEND'
    MARK      'MARKER'                 'INTORG'
    X0001190  C0000289  -1.000000000000e+01
    MARK      'MARKER'                 'INTEND'
    MARK      'MARKER'                 'INTORG'
    X0001191  C0000290  -1.000000000000e+01
    MARK      'MARKER'                 'INTEND'
    MARK      'MARKER'                 'INTORG'
    X0001192  C0000291  -1.000000000000e+01
    MARK      'MARKER'                 'INTEND'
    MARK      'MARKER'                 'INTORG'
    X0001193  C0000292  -1.000000000000e+01
    MARK      'MARKER'                 'INTEND'
    MARK      'MARKER'                 'INTORG'
    X0001194  C0000293  -1.000000000000e+01
    X0001194  C0001830   1.000000000000e+00
    MARK      'MARKER'                 'INTEND'
    MARK      'MARKER'                 'INTORG'
    X0001195  C0000294  -1.000000000000e+01
    X0001195  C0001835   1.000000000000e+00
    MARK      'MARKER'                 'INTEND'
    MARK      'MARKER'                 'INTORG'
    X0001196  C0000296  -1.000000000000e+01
    MARK      'MARKER'                 'INTEND'
    MARK      'MARKER'                 'INTORG'
    X0001197  C0000305  -1.000000000000e+01
    X0001197  C0001883   1.000000000000e+00
    MARK      'MARKER'                 'INTEND'
    MARK      'MARKER'                 'INTORG'
    X0001198  C0000297  -1.000000000000e+01
    MARK      'MARKER'                 'INTEND'
    MARK      'MARKER'                 'INTORG'
    X0001199  C0000298  -1.000000000000e+01
    MARK      'MARKER'                 'INTEND'
    MARK      'MARKER'                 'INTORG'
    X0001200  C0000299  -1.000000000000e+01
    MARK      'MARKER'                 'INTEND'
    MARK      'MARKER'                 'INTORG'
    X0001201  C0000300  -1.000000000000e+01
    MARK      'MARKER'                 'INTEND'
    MARK      'MARKER'                 'INTORG'
    X0001202  C0000301  -1.000000000000e+01
    MARK      'MARKER'                 'INTEND'
    MARK      'MARKER'                 'INTORG'
    X0001203  C0000302  -1.000000000000e+01
    MARK      'MARKER'                 'INTEND'
    MARK      'MARKER'                 'INTORG'
    X0001204  C0000303  -1.000000000000e+01
    X0001204  C0001873   1.000000000000e+00
    MARK      'MARKER'                 'INTEND'
    MARK      'MARKER'                 'INTORG'
    X0001205  C0000304  -1.000000000000e+01
    X0001205  C0001878   1.000000000000e+00
    MARK      'MARKER'                 'INTEND'
    MARK      'MARKER'                 'INTORG'
    X0001206  C0000306  -1.000000000000e+01
    MARK      'MARKER'                 'INTEND'
    MARK      'MARKER'                 'INTORG'
    X0001207  C0000315  -1.000000000000e+01
    X0001207  C0001926   1.000000000000e+00
    MARK      'MARKER'                 'INTEND'
    MARK      'MARKER'                 'INTORG'
    X0001208  C0000307  -1.000000000000e+01
    MARK      'MARKER'                 'INTEND'
    MARK      'MARKER'                 'INTORG'
    X0001209  C0000308  -1.000000000000e+01
    MARK      'MARKER'                 'INTEND'
    MARK      'MARKER'                 'INTORG'
    X0001210  C0000309  -1.000000000000e+01
    MARK      'MARKER'                 'INTEND'
    MARK      'MARKER'                 'INTORG'
    X0001211  C0000310  -1.000000000000e+01
    MARK      'MARKER'                 'INTEND'
    MARK      'MARKER'                 'INTORG'
    X0001212  C0000311  -1.000000000000e+01
    MARK      'MARKER'                 'INTEND'
    MARK      'MARKER'                 'INTORG'
    X0001213  C0000312  -1.000000000000e+01
    MARK      'MARKER'                 'INTEND'
    MARK      'MARKER'                 'INTORG'
    X0001214  C0000313  -1.000000000000e+01
    X0001214  C0001916   1.000000000000e+00
    MARK      'MARKER'                 'INTEND'
    MARK      'MARKER'                 'INTORG'
    X0001215  C0000314  -1.000000000000e+01
    X0001215  C0001921   1.000000000000e+00
    MARK      'MARKER'                 'INTEND'
    MARK      'MARKER'                 'INTORG'
    X0001216  C0000316  -1.000000000000e+01
    MARK      'MARKER'                 'INTEND'
    MARK      'MARKER'                 'INTORG'
    X0001217  C0000325  -1.000000000000e+01
    X0001217  C0001969   1.000000000000e+00
    MARK      'MARKER'                 'INTEND'
    MARK      'MARKER'                 'INTORG'
    X0001218  C0000317  -1.000000000000e+01
    MARK      'MARKER'                 'INTEND'
    MARK      'MARKER'                 'INTORG'
    X0001219  C0000318  -1.000000000000e+01
    MARK      'MARKER'                 'INTEND'
    MARK      'MARKER'                 'INTORG'
    X0001220  C0000319  -1.000000000000e+01
    MARK      'MARKER'                 'INTEND'
    MARK      'MARKER'                 'INTORG'
    X0001221  C0000320  -1.000000000000e+01
    MARK      'MARKER'                 'INTEND'
    MARK      'MARKER'                 'INTORG'
    X0001222  C0000321  -1.000000000000e+01
    MARK      'MARKER'                 'INTEND'
    MARK      'MARKER'                 'INTORG'
    X0001223  C0000322  -1.000000000000e+01
    MARK      'MARKER'                 'INTEND'
    MARK      'MARKER'                 'INTORG'
    X0001224  C0000323  -1.000000000000e+01
    X0001224  C0001959   1.000000000000e+00
    MARK      'MARKER'                 'INTEND'
    MARK      'MARKER'                 'INTORG'
    X0001225  C0000324  -1.000000000000e+01
    X0001225  C0001964   1.000000000000e+00
    MARK      'MARKER'                 'INTEND'
    MARK      'MARKER'                 'INTORG'
    X0001226  C0000326  -1.000000000000e+01
    MARK      'MARKER'                 'INTEND'
    MARK      'MARKER'                 'INTORG'
    X0001227  C0000335  -1.000000000000e+01
    X0001227  C0002012   1.000000000000e+00
    MARK      'MARKER'                 'INTEND'
    MARK      'MARKER'                 'INTORG'
    X0001228  C0000327  -1.000000000000e+01
    MARK      'MARKER'                 'INTEND'
    MARK      'MARKER'                 'INTORG'
    X0001229  C0000328  -1.000000000000e+01
    MARK      'MARKER'                 'INTEND'
    MARK      'MARKER'                 'INTORG'
    X0001230  C0000329  -1.000000000000e+01
    MARK      'MARKER'                 'INTEND'
    MARK      'MARKER'                 'INTORG'
    X0001231  C0000330  -1.000000000000e+01
    MARK      'MARKER'                 'INTEND'
    MARK      'MARKER'                 'INTORG'
    X0001232  C0000331  -1.000000000000e+01
    MARK      'MARKER'                 'INTEND'
    MARK      'MARKER'                 'INTORG'
    X0001233  C0000332  -1.000000000000e+01
    MARK      'MARKER'                 'INTEND'
    MARK      'MARKER'                 'INTORG'
    X0001234  C0000333  -1.000000000000e+01
    X0001234  C0002002   1.000000000000e+00
    MARK      'MARKER'                 'INTEND'
    MARK      'MARKER'                 'INTORG'
    X0001235  C0000334  -1.000000000000e+01
    X0001235  C0002007   1.000000000000e+00
    MARK      'MARKER'                 'INTEND'
    MARK      'MARKER'                 'INTORG'
    X0001236  C0000336  -1.000000000000e+01
    MARK      'MARKER'                 'INTEND'
    MARK      'MARKER'                 'INTORG'
    X0001237  C0000345  -1.000000000000e+01
    X0001237  C0002055   1.000000000000e+00
    MARK      'MARKER'                 'INTEND'
    MARK      'MARKER'                 'INTORG'
    X0001238  C0000337  -1.000000000000e+01
    MARK      'MARKER'                 'INTEND'
    MARK      'MARKER'                 'INTORG'
    X0001239  C0000338  -1.000000000000e+01
    MARK      'MARKER'                 'INTEND'
    MARK      'MARKER'                 'INTORG'
    X0001240  C0000339  -1.000000000000e+01
    MARK      'MARKER'                 'INTEND'
    MARK      'MARKER'                 'INTORG'
    X0001241  C0000340  -1.000000000000e+01
    MARK      'MARKER'                 'INTEND'
    MARK      'MARKER'                 'INTORG'
    X0001242  C0000341  -1.000000000000e+01
    MARK      'MARKER'                 'INTEND'
    MARK      'MARKER'                 'INTORG'
    X0001243  C0000342  -1.000000000000e+01
    MARK      'MARKER'                 'INTEND'
    MARK      'MARKER'                 'INTORG'
    X0001244  C0000343  -1.000000000000e+01
    X0001244  C0002045   1.000000000000e+00
    MARK      'MARKER'                 'INTEND'
    MARK      'MARKER'                 'INTORG'
    X0001245  C0000344  -1.000000000000e+01
    X0001245  C0002050   1.000000000000e+00
    MARK      'MARKER'                 'INTEND'
    MARK      'MARKER'                 'INTORG'
    X0001246  C0000346  -1.000000000000e+01
    MARK      'MARKER'                 'INTEND'
    MARK      'MARKER'                 'INTORG'
    X0001247  C0000355  -1.000000000000e+01
    X0001247  C0002098   1.000000000000e+00
    MARK      'MARKER'                 'INTEND'
    MARK      'MARKER'                 'INTORG'
    X0001248  C0000347  -1.000000000000e+01
    MARK      'MARKER'                 'INTEND'
    MARK      'MARKER'                 'INTORG'
    X0001249  C0000348  -1.000000000000e+01
    MARK      'MARKER'                 'INTEND'
    MARK      'MARKER'                 'INTORG'
    X0001250  C0000349  -1.000000000000e+01
    MARK      'MARKER'                 'INTEND'
    MARK      'MARKER'                 'INTORG'
    X0001251  C0000350  -1.000000000000e+01
    MARK      'MARKER'                 'INTEND'
    MARK      'MARKER'                 'INTORG'
    X0001252  C0000351  -1.000000000000e+01
    MARK      'MARKER'                 'INTEND'
    MARK      'MARKER'                 'INTORG'
    X0001253  C0000352  -1.000000000000e+01
    MARK      'MARKER'                 'INTEND'
    MARK      'MARKER'                 'INTORG'
    X0001254  C0000353  -1.000000000000e+01
    X0001254  C0002088   1.000000000000e+00
    MARK      'MARKER'                 'INTEND'
    MARK      'MARKER'                 'INTORG'
    X0001255  C0000354  -1.000000000000e+01
    X0001255  C0002093   1.000000000000e+00
    MARK      'MARKER'                 'INTEND'
    MARK      'MARKER'                 'INTORG'
    X0001256  C0000356  -1.000000000000e+01
    MARK      'MARKER'                 'INTEND'
    MARK      'MARKER'                 'INTORG'
    X0001257  C0000365  -1.000000000000e+01
    X0001257  C0002141   1.000000000000e+00
    MARK      'MARKER'                 'INTEND'
    MARK      'MARKER'                 'INTORG'
    X0001258  C0000357  -1.000000000000e+01
    MARK      'MARKER'                 'INTEND'
    MARK      'MARKER'                 'INTORG'
    X0001259  C0000358  -1.000000000000e+01
    MARK      'MARKER'                 'INTEND'
    MARK      'MARKER'                 'INTORG'
    X0001260  C0000359  -1.000000000000e+01
    MARK      'MARKER'                 'INTEND'
    MARK      'MARKER'                 'INTORG'
    X0001261  C0000360  -1.000000000000e+01
    MARK      'MARKER'                 'INTEND'
    MARK      'MARKER'                 'INTORG'
    X0001262  C0000361  -1.000000000000e+01
    MARK      'MARKER'                 'INTEND'
    MARK      'MARKER'                 'INTORG'
    X0001263  C0000362  -1.000000000000e+01
    MARK      'MARKER'                 'INTEND'
    MARK      'MARKER'                 'INTORG'
    X0001264  C0000363  -1.000000000000e+01
    X0001264  C0002131   1.000000000000e+00
    MARK      'MARKER'                 'INTEND'
    MARK      'MARKER'                 'INTORG'
    X0001265  C0000364  -1.000000000000e+01
    X0001265  C0002136   1.000000000000e+00
    MARK      'MARKER'                 'INTEND'
    MARK      'MARKER'                 'INTORG'
    X0001266  C0000006  -1.000000000000e+00
    X0001266  C0000676   1.000000000000e+00
    X0001266  C0000677   1.000000000000e+00
    X0001266  C0000678   1.000000000000e+00
    MARK      'MARKER'                 'INTEND'
    MARK      'MARKER'                 'INTORG'
    X0001267  C0000015  -1.000000000000e+00
    X0001267  C0000703   1.000000000000e+00
    X0001267  C0000704   1.000000000000e+00
    X0001267  C0000705   1.000000000000e+00
    MARK      'MARKER'                 'INTEND'
    MARK      'MARKER'                 'INTORG'
    X0001268  C0000007  -1.000000000000e+00
    X0001268  C0000679   1.000000000000e+00
    X0001268  C0000680   1.000000000000e+00
    X0001268  C0000681   1.000000000000e+00
    MARK      'MARKER'                 'INTEND'
    MARK      'MARKER'                 'INTORG'
    X0001269  C0000008  -1.000000000000e+00
    X0001269  C0000682   1.000000000000e+00
    X0001269  C0000683   1.000000000000e+00
    X0001269  C0000684   1.000000000000e+00
    MARK      'MARKER'                 'INTEND'
    MARK      'MARKER'                 'INTORG'
    X0001270  C0000009  -1.000000000000e+00
    X0001270  C0000685   1.000000000000e+00
    X0001270  C0000686   1.000000000000e+00
    X0001270  C0000687   1.000000000000e+00
    MARK      'MARKER'                 'INTEND'
    MARK      'MARKER'                 'INTORG'
    X0001271  C0000010  -1.000000000000e+00
    X0001271  C0000688   1.000000000000e+00
    X0001271  C0000689   1.000000000000e+00
    X0001271  C0000690   1.000000000000e+00
    MARK      'MARKER'                 'INTEND'
    MARK      'MARKER'                 'INTORG'
    X0001272  C0000011  -1.000000000000e+00
    X0001272  C0000691   1.000000000000e+00
    X0001272  C0000692   1.000000000000e+00
    X0001272  C0000693   1.000000000000e+00
    MARK      'MARKER'                 'INTEND'
    MARK      'MARKER'                 'INTORG'
    X0001273  C0000012  -1.000000000000e+00
    X0001273  C0000694   1.000000000000e+00
    X0001273  C0000695   1.000000000000e+00
    X0001273  C0000696   1.000000000000e+00
    MARK      'MARKER'                 'INTEND'
    MARK      'MARKER'                 'INTORG'
    X0001274  C0000013  -1.000000000000e+00
    X0001274  C0000697   1.000000000000e+00
    X0001274  C0000698   1.000000000000e+00
    X0001274  C0000699   1.000000000000e+00
    MARK      'MARKER'                 'INTEND'
    MARK      'MARKER'                 'INTORG'
    X0001275  C0000014  -1.000000000000e+00
    X0001275  C0000700   1.000000000000e+00
    X0001275  C0000701   1.000000000000e+00
    X0001275  C0000702   1.000000000000e+00
    MARK      'MARKER'                 'INTEND'
    MARK      'MARKER'                 'INTORG'
    X0001276  C0000016  -1.000000000000e+00
    X0001276  C0000706   1.000000000000e+00
    X0001276  C0000707   1.000000000000e+00
    X0001276  C0000708   1.000000000000e+00
    MARK      'MARKER'                 'INTEND'
    MARK      'MARKER'                 'INTORG'
    X0001277  C0000025  -1.000000000000e+00
    X0001277  C0000733   1.000000000000e+00
    X0001277  C0000734   1.000000000000e+00
    X0001277  C0000735   1.000000000000e+00
    MARK      'MARKER'                 'INTEND'
    MARK      'MARKER'                 'INTORG'
    X0001278  C0000017  -1.000000000000e+00
    X0001278  C0000709   1.000000000000e+00
    X0001278  C0000710   1.000000000000e+00
    X0001278  C0000711   1.000000000000e+00
    MARK      'MARKER'                 'INTEND'
    MARK      'MARKER'                 'INTORG'
    X0001279  C0000018  -1.000000000000e+00
    X0001279  C0000712   1.000000000000e+00
    X0001279  C0000713   1.000000000000e+00
    X0001279  C0000714   1.000000000000e+00
    MARK      'MARKER'                 'INTEND'
    MARK      'MARKER'                 'INTORG'
    X0001280  C0000019  -1.000000000000e+00
    X0001280  C0000715   1.000000000000e+00
    X0001280  C0000716   1.000000000000e+00
    X0001280  C0000717   1.000000000000e+00
    MARK      'MARKER'                 'INTEND'
    MARK      'MARKER'                 'INTORG'
    X0001281  C0000020  -1.000000000000e+00
    X0001281  C0000718   1.000000000000e+00
    X0001281  C0000719   1.000000000000e+00
    X0001281  C0000720   1.000000000000e+00
    MARK      'MARKER'                 'INTEND'
    MARK      'MARKER'                 'INTORG'
    X0001282  C0000021  -1.000000000000e+00
    X0001282  C0000721   1.000000000000e+00
    X0001282  C0000722   1.000000000000e+00
    X0001282  C0000723   1.000000000000e+00
    MARK      'MARKER'                 'INTEND'
    MARK      'MARKER'                 'INTORG'
    X0001283  C0000022  -1.000000000000e+00
    X0001283  C0000724   1.000000000000e+00
    X0001283  C0000725   1.000000000000e+00
    X0001283  C0000726   1.000000000000e+00
    MARK      'MARKER'                 'INTEND'
    MARK      'MARKER'                 'INTORG'
    X0001284  C0000023  -1.000000000000e+00
    X0001284  C0000727   1.000000000000e+00
    X0001284  C0000728   1.000000000000e+00
    X0001284  C0000729   1.000000000000e+00
    MARK      'MARKER'                 'INTEND'
    MARK      'MARKER'                 'INTORG'
    X0001285  C0000024  -1.000000000000e+00
    X0001285  C0000730   1.000000000000e+00
    X0001285  C0000731   1.000000000000e+00
    X0001285  C0000732   1.000000000000e+00
    MARK      'MARKER'                 'INTEND'
    MARK      'MARKER'                 'INTORG'
    X0001286  C0000026  -1.000000000000e+00
    X0001286  C0000736   1.000000000000e+00
    X0001286  C0000737   1.000000000000e+00
    X0001286  C0000738   1.000000000000e+00
    MARK      'MARKER'                 'INTEND'
    MARK      'MARKER'                 'INTORG'
    X0001287  C0000035  -1.000000000000e+00
    X0001287  C0000763   1.000000000000e+00
    X0001287  C0000764   1.000000000000e+00
    X0001287  C0000765   1.000000000000e+00
    MARK      'MARKER'                 'INTEND'
    MARK      'MARKER'                 'INTORG'
    X0001288  C0000027  -1.000000000000e+00
    X0001288  C0000739   1.000000000000e+00
    X0001288  C0000740   1.000000000000e+00
    X0001288  C0000741   1.000000000000e+00
    MARK      'MARKER'                 'INTEND'
    MARK      'MARKER'                 'INTORG'
    X0001289  C0000028  -1.000000000000e+00
    X0001289  C0000742   1.000000000000e+00
    X0001289  C0000743   1.000000000000e+00
    X0001289  C0000744   1.000000000000e+00
    MARK      'MARKER'                 'INTEND'
    MARK      'MARKER'                 'INTORG'
    X0001290  C0000029  -1.000000000000e+00
    X0001290  C0000745   1.000000000000e+00
    X0001290  C0000746   1.000000000000e+00
    X0001290  C0000747   1.000000000000e+00
    MARK      'MARKER'                 'INTEND'
    MARK      'MARKER'                 'INTORG'
    X0001291  C0000030  -1.000000000000e+00
    X0001291  C0000748   1.000000000000e+00
    X0001291  C0000749   1.000000000000e+00
    X0001291  C0000750   1.000000000000e+00
    MARK      'MARKER'                 'INTEND'
    MARK      'MARKER'                 'INTORG'
    X0001292  C0000031  -1.000000000000e+00
    X0001292  C0000751   1.000000000000e+00
    X0001292  C0000752   1.000000000000e+00
    X0001292  C0000753   1.000000000000e+00
    MARK      'MARKER'                 'INTEND'
    MARK      'MARKER'                 'INTORG'
    X0001293  C0000032  -1.000000000000e+00
    X0001293  C0000754   1.000000000000e+00
    X0001293  C0000755   1.000000000000e+00
    X0001293  C0000756   1.000000000000e+00
    MARK      'MARKER'                 'INTEND'
    MARK      'MARKER'                 'INTORG'
    X0001294  C0000033  -1.000000000000e+00
    X0001294  C0000757   1.000000000000e+00
    X0001294  C0000758   1.000000000000e+00
    X0001294  C0000759   1.000000000000e+00
    MARK      'MARKER'                 'INTEND'
    MARK      'MARKER'                 'INTORG'
    X0001295  C0000034  -1.000000000000e+00
    X0001295  C0000760   1.000000000000e+00
    X0001295  C0000761   1.000000000000e+00
    X0001295  C0000762   1.000000000000e+00
    MARK      'MARKER'                 'INTEND'
    MARK      'MARKER'                 'INTORG'
    X0001296  C0000036  -1.000000000000e+00
    X0001296  C0000766   1.000000000000e+00
    X0001296  C0000767   1.000000000000e+00
    X0001296  C0000768   1.000000000000e+00
    MARK      'MARKER'                 'INTEND'
    MARK      'MARKER'                 'INTORG'
    X0001297  C0000045  -1.000000000000e+00
    X0001297  C0000793   1.000000000000e+00
    X0001297  C0000794   1.000000000000e+00
    X0001297  C0000795   1.000000000000e+00
    MARK      'MARKER'                 'INTEND'
    MARK      'MARKER'                 'INTORG'
    X0001298  C0000037  -1.000000000000e+00
    X0001298  C0000769   1.000000000000e+00
    X0001298  C0000770   1.000000000000e+00
    X0001298  C0000771   1.000000000000e+00
    MARK      'MARKER'                 'INTEND'
    MARK      'MARKER'                 'INTORG'
    X0001299  C0000038  -1.000000000000e+00
    X0001299  C0000772   1.000000000000e+00
    X0001299  C0000773   1.000000000000e+00
    X0001299  C0000774   1.000000000000e+00
    MARK      'MARKER'                 'INTEND'
    MARK      'MARKER'                 'INTORG'
    X0001300  C0000039  -1.000000000000e+00
    X0001300  C0000775   1.000000000000e+00
    X0001300  C0000776   1.000000000000e+00
    X0001300  C0000777   1.000000000000e+00
    MARK      'MARKER'                 'INTEND'
    MARK      'MARKER'                 'INTORG'
    X0001301  C0000040  -1.000000000000e+00
    X0001301  C0000778   1.000000000000e+00
    X0001301  C0000779   1.000000000000e+00
    X0001301  C0000780   1.000000000000e+00
    MARK      'MARKER'                 'INTEND'
    MARK      'MARKER'                 'INTORG'
    X0001302  C0000041  -1.000000000000e+00
    X0001302  C0000781   1.000000000000e+00
    X0001302  C0000782   1.000000000000e+00
    X0001302  C0000783   1.000000000000e+00
    MARK      'MARKER'                 'INTEND'
    MARK      'MARKER'                 'INTORG'
    X0001303  C0000042  -1.000000000000e+00
    X0001303  C0000784   1.000000000000e+00
    X0001303  C0000785   1.000000000000e+00
    X0001303  C0000786   1.000000000000e+00
    MARK      'MARKER'                 'INTEND'
    MARK      'MARKER'                 'INTORG'
    X0001304  C0000043  -1.000000000000e+00
    X0001304  C0000787   1.000000000000e+00
    X0001304  C0000788   1.000000000000e+00
    X0001304  C0000789   1.000000000000e+00
    MARK      'MARKER'                 'INTEND'
    MARK      'MARKER'                 'INTORG'
    X0001305  C0000044  -1.000000000000e+00
    X0001305  C0000790   1.000000000000e+00
    X0001305  C0000791   1.000000000000e+00
    X0001305  C0000792   1.000000000000e+00
    MARK      'MARKER'                 'INTEND'
    MARK      'MARKER'                 'INTORG'
    X0001306  C0000046  -1.000000000000e+00
    X0001306  C0000796   1.000000000000e+00
    X0001306  C0000797   1.000000000000e+00
    X0001306  C0000798   1.000000000000e+00
    MARK      'MARKER'                 'INTEND'
    MARK      'MARKER'                 'INTORG'
    X0001307  C0000055  -1.000000000000e+00
    X0001307  C0000823   1.000000000000e+00
    X0001307  C0000824   1.000000000000e+00
    X0001307  C0000825   1.000000000000e+00
    MARK      'MARKER'                 'INTEND'
    MARK      'MARKER'                 'INTORG'
    X0001308  C0000047  -1.000000000000e+00
    X0001308  C0000799   1.000000000000e+00
    X0001308  C0000800   1.000000000000e+00
    X0001308  C0000801   1.000000000000e+00
    MARK      'MARKER'                 'INTEND'
    MARK      'MARKER'                 'INTORG'
    X0001309  C0000048  -1.000000000000e+00
    X0001309  C0000802   1.000000000000e+00
    X0001309  C0000803   1.000000000000e+00
    X0001309  C0000804   1.000000000000e+00
    MARK      'MARKER'                 'INTEND'
    MARK      'MARKER'                 'INTORG'
    X0001310  C0000049  -1.000000000000e+00
    X0001310  C0000805   1.000000000000e+00
    X0001310  C0000806   1.000000000000e+00
    X0001310  C0000807   1.000000000000e+00
    MARK      'MARKER'                 'INTEND'
    MARK      'MARKER'                 'INTORG'
    X0001311  C0000050  -1.000000000000e+00
    X0001311  C0000808   1.000000000000e+00
    X0001311  C0000809   1.000000000000e+00
    X0001311  C0000810   1.000000000000e+00
    MARK      'MARKER'                 'INTEND'
    MARK      'MARKER'                 'INTORG'
    X0001312  C0000051  -1.000000000000e+00
    X0001312  C0000811   1.000000000000e+00
    X0001312  C0000812   1.000000000000e+00
    X0001312  C0000813   1.000000000000e+00
    MARK      'MARKER'                 'INTEND'
    MARK      'MARKER'                 'INTORG'
    X0001313  C0000052  -1.000000000000e+00
    X0001313  C0000814   1.000000000000e+00
    X0001313  C0000815   1.000000000000e+00
    X0001313  C0000816   1.000000000000e+00
    MARK      'MARKER'                 'INTEND'
    MARK      'MARKER'                 'INTORG'
    X0001314  C0000053  -1.000000000000e+00
    X0001314  C0000817   1.000000000000e+00
    X0001314  C0000818   1.000000000000e+00
    X0001314  C0000819   1.000000000000e+00
    MARK      'MARKER'                 'INTEND'
    MARK      'MARKER'                 'INTORG'
    X0001315  C0000054  -1.000000000000e+00
    X0001315  C0000820   1.000000000000e+00
    X0001315  C0000821   1.000000000000e+00
    X0001315  C0000822   1.000000000000e+00
    MARK      'MARKER'                 'INTEND'
    MARK      'MARKER'                 'INTORG'
    X0001316  C0000056  -1.000000000000e+00
    X0001316  C0000826   1.000000000000e+00
    X0001316  C0000827   1.000000000000e+00
    X0001316  C0000828   1.000000000000e+00
    MARK      'MARKER'                 'INTEND'
    MARK      'MARKER'                 'INTORG'
    X0001317  C0000065  -1.000000000000e+00
    X0001317  C0000853   1.000000000000e+00
    X0001317  C0000854   1.000000000000e+00
    X0001317  C0000855   1.000000000000e+00
    MARK      'MARKER'                 'INTEND'
    MARK      'MARKER'                 'INTORG'
    X0001318  C0000057  -1.000000000000e+00
    X0001318  C0000829   1.000000000000e+00
    X0001318  C0000830   1.000000000000e+00
    X0001318  C0000831   1.000000000000e+00
    MARK      'MARKER'                 'INTEND'
    MARK      'MARKER'                 'INTORG'
    X0001319  C0000058  -1.000000000000e+00
    X0001319  C0000832   1.000000000000e+00
    X0001319  C0000833   1.000000000000e+00
    X0001319  C0000834   1.000000000000e+00
    MARK      'MARKER'                 'INTEND'
    MARK      'MARKER'                 'INTORG'
    X0001320  C0000059  -1.000000000000e+00
    X0001320  C0000835   1.000000000000e+00
    X0001320  C0000836   1.000000000000e+00
    X0001320  C0000837   1.000000000000e+00
    MARK      'MARKER'                 'INTEND'
    MARK      'MARKER'                 'INTORG'
    X0001321  C0000060  -1.000000000000e+00
    X0001321  C0000838   1.000000000000e+00
    X0001321  C0000839   1.000000000000e+00
    X0001321  C0000840   1.000000000000e+00
    MARK      'MARKER'                 'INTEND'
    MARK      'MARKER'                 'INTORG'
    X0001322  C0000061  -1.000000000000e+00
    X0001322  C0000841   1.000000000000e+00
    X0001322  C0000842   1.000000000000e+00
    X0001322  C0000843   1.000000000000e+00
    MARK      'MARKER'                 'INTEND'
    MARK      'MARKER'                 'INTORG'
    X0001323  C0000062  -1.000000000000e+00
    X0001323  C0000844   1.000000000000e+00
    X0001323  C0000845   1.000000000000e+00
    X0001323  C0000846   1.000000000000e+00
    MARK      'MARKER'                 'INTEND'
    MARK      'MARKER'                 'INTORG'
    X0001324  C0000063  -1.000000000000e+00
    X0001324  C0000847   1.000000000000e+00
    X0001324  C0000848   1.000000000000e+00
    X0001324  C0000849   1.000000000000e+00
    MARK      'MARKER'                 'INTEND'
    MARK      'MARKER'                 'INTORG'
    X0001325  C0000064  -1.000000000000e+00
    X0001325  C0000850   1.000000000000e+00
    X0001325  C0000851   1.000000000000e+00
    X0001325  C0000852   1.000000000000e+00
    MARK      'MARKER'                 'INTEND'
    MARK      'MARKER'                 'INTORG'
    X0001326  C0000066  -1.000000000000e+00
    X0001326  C0000856   1.000000000000e+00
    X0001326  C0000858   1.000000000000e+00
    X0001326  C0000859   1.000000000000e+00
    MARK      'MARKER'                 'INTEND'
    MARK      'MARKER'                 'INTORG'
    X0001327  C0000075  -1.000000000000e+00
    X0001327  C0000895   1.000000000000e+00
    MARK      'MARKER'                 'INTEND'
    MARK      'MARKER'                 'INTORG'
    X0001328  C0000067  -1.000000000000e+00
    X0001328  C0000860   1.000000000000e+00
    X0001328  C0000862   1.000000000000e+00
    X0001328  C0000863   1.000000000000e+00
    MARK      'MARKER'                 'INTEND'
    MARK      'MARKER'                 'INTORG'
    X0001329  C0000068  -1.000000000000e+00
    X0001329  C0000864   1.000000000000e+00
    X0001329  C0000866   1.000000000000e+00
    X0001329  C0000867   1.000000000000e+00
    MARK      'MARKER'                 'INTEND'
    MARK      'MARKER'                 'INTORG'
    X0001330  C0000069  -1.000000000000e+00
    X0001330  C0000868   1.000000000000e+00
    X0001330  C0000870   1.000000000000e+00
    X0001330  C0000871   1.000000000000e+00
    MARK      'MARKER'                 'INTEND'
    MARK      'MARKER'                 'INTORG'
    X0001331  C0000070  -1.000000000000e+00
    X0001331  C0000872   1.000000000000e+00
    X0001331  C0000874   1.000000000000e+00
    X0001331  C0000875   1.000000000000e+00
    MARK      'MARKER'                 'INTEND'
    MARK      'MARKER'                 'INTORG'
    X0001332  C0000071  -1.000000000000e+00
    X0001332  C0000876   1.000000000000e+00
    X0001332  C0000878   1.000000000000e+00
    X0001332  C0000879   1.000000000000e+00
    MARK      'MARKER'                 'INTEND'
    MARK      'MARKER'                 'INTORG'
    X0001333  C0000072  -1.000000000000e+00
    X0001333  C0000880   1.000000000000e+00
    X0001333  C0000882   1.000000000000e+00
    X0001333  C0000883   1.000000000000e+00
    MARK      'MARKER'                 'INTEND'
    MARK      'MARKER'                 'INTORG'
    X0001334  C0000073  -1.000000000000e+00
    X0001334  C0000885   1.000000000000e+00
    MARK      'MARKER'                 'INTEND'
    MARK      'MARKER'                 'INTORG'
    X0001335  C0000074  -1.000000000000e+00
    X0001335  C0000890   1.000000000000e+00
    MARK      'MARKER'                 'INTEND'
    MARK      'MARKER'                 'INTORG'
    X0001336  C0000076  -1.000000000000e+00
    X0001336  C0000899   1.000000000000e+00
    X0001336  C0000901   1.000000000000e+00
    X0001336  C0000902   1.000000000000e+00
    MARK      'MARKER'                 'INTEND'
    MARK      'MARKER'                 'INTORG'
    X0001337  C0000085  -1.000000000000e+00
    X0001337  C0000938   1.000000000000e+00
    MARK      'MARKER'                 'INTEND'
    MARK      'MARKER'                 'INTORG'
    X0001338  C0000077  -1.000000000000e+00
    X0001338  C0000903   1.000000000000e+00
    X0001338  C0000905   1.000000000000e+00
    X0001338  C0000906   1.000000000000e+00
    MARK      'MARKER'                 'INTEND'
    MARK      'MARKER'                 'INTORG'
    X0001339  C0000078  -1.000000000000e+00
    X0001339  C0000907   1.000000000000e+00
    X0001339  C0000909   1.000000000000e+00
    X0001339  C0000910   1.000000000000e+00
    MARK      'MARKER'                 'INTEND'
    MARK      'MARKER'                 'INTORG'
    X0001340  C0000079  -1.000000000000e+00
    X0001340  C0000911   1.000000000000e+00
    X0001340  C0000913   1.000000000000e+00
    X0001340  C0000914   1.000000000000e+00
    MARK      'MARKER'                 'INTEND'
    MARK      'MARKER'                 'INTORG'
    X0001341  C0000080  -1.000000000000e+00
    X0001341  C0000915   1.000000000000e+00
    X0001341  C0000917   1.000000000000e+00
    X0001341  C0000918   1.000000000000e+00
    MARK      'MARKER'                 'INTEND'
    MARK      'MARKER'                 'INTORG'
    X0001342  C0000081  -1.000000000000e+00
    X0001342  C0000919   1.000000000000e+00
    X0001342  C0000921   1.000000000000e+00
    X0001342  C0000922   1.000000000000e+00
    MARK      'MARKER'                 'INTEND'
    MARK      'MARKER'                 'INTORG'
    X0001343  C0000082  -1.000000000000e+00
    X0001343  C0000923   1.000000000000e+00
    X0001343  C0000925   1.000000000000e+00
    X0001343  C0000926   1.000000000000e+00
    MARK      'MARKER'                 'INTEND'
    MARK      'MARKER'                 'INTORG'
    X0001344  C0000083  -1.000000000000e+00
    X0001344  C0000928   1.000000000000e+00
    MARK      'MARKER'                 'INTEND'
    MARK      'MARKER'                 'INTORG'
    X0001345  C0000084  -1.000000000000e+00
    X0001345  C0000933   1.000000000000e+00
    MARK      'MARKER'                 'INTEND'
    MARK      'MARKER'                 'INTORG'
    X0001346  C0000086  -1.000000000000e+00
    X0001346  C0000942   1.000000000000e+00
    X0001346  C0000944   1.000000000000e+00
    X0001346  C0000945   1.000000000000e+00
    MARK      'MARKER'                 'INTEND'
    MARK      'MARKER'                 'INTORG'
    X0001347  C0000095  -1.000000000000e+00
    X0001347  C0000981   1.000000000000e+00
    MARK      'MARKER'                 'INTEND'
    MARK      'MARKER'                 'INTORG'
    X0001348  C0000087  -1.000000000000e+00
    X0001348  C0000946   1.000000000000e+00
    X0001348  C0000948   1.000000000000e+00
    X0001348  C0000949   1.000000000000e+00
    MARK      'MARKER'                 'INTEND'
    MARK      'MARKER'                 'INTORG'
    X0001349  C0000088  -1.000000000000e+00
    X0001349  C0000950   1.000000000000e+00
    X0001349  C0000952   1.000000000000e+00
    X0001349  C0000953   1.000000000000e+00
    MARK      'MARKER'                 'INTEND'
    MARK      'MARKER'                 'INTORG'
    X0001350  C0000089  -1.000000000000e+00
    X0001350  C0000954   1.000000000000e+00
    X0001350  C0000956   1.000000000000e+00
    X0001350  C0000957   1.000000000000e+00
    MARK      'MARKER'                 'INTEND'
    MARK      'MARKER'                 'INTORG'
    X0001351  C0000090  -1.000000000000e+00
    X0001351  C0000958   1.000000000000e+00
    X0001351  C0000960   1.000000000000e+00
    X0001351  C0000961   1.000000000000e+00
    MARK      'MARKER'                 'INTEND'
    MARK      'MARKER'                 'INTORG'
    X0001352  C0000091  -1.000000000000e+00
    X0001352  C0000962   1.000000000000e+00
    X0001352  C0000964   1.000000000000e+00
    X0001352  C0000965   1.000000000000e+00
    MARK      'MARKER'                 'INTEND'
    MARK      'MARKER'                 'INTORG'
    X0001353  C0000092  -1.000000000000e+00
    X0001353  C0000966   1.000000000000e+00
    X0001353  C0000968   1.000000000000e+00
    X0001353  C0000969   1.000000000000e+00
    MARK      'MARKER'                 'INTEND'
    MARK      'MARKER'                 'INTORG'
    X0001354  C0000093  -1.000000000000e+00
    X0001354  C0000971   1.000000000000e+00
    MARK      'MARKER'                 'INTEND'
    MARK      'MARKER'                 'INTORG'
    X0001355  C0000094  -1.000000000000e+00
    X0001355  C0000976   1.000000000000e+00
    MARK      'MARKER'                 'INTEND'
    MARK      'MARKER'                 'INTORG'
    X0001356  C0000096  -1.000000000000e+00
    X0001356  C0000985   1.000000000000e+00
    X0001356  C0000987   1.000000000000e+00
    X0001356  C0000988   1.000000000000e+00
    MARK      'MARKER'                 'INTEND'
    MARK      'MARKER'                 'INTORG'
    X0001357  C0000105  -1.000000000000e+00
    X0001357  C0001024   1.000000000000e+00
    MARK      'MARKER'                 'INTEND'
    MARK      'MARKER'                 'INTORG'
    X0001358  C0000097  -1.000000000000e+00
    X0001358  C0000989   1.000000000000e+00
    X0001358  C0000991   1.000000000000e+00
    X0001358  C0000992   1.000000000000e+00
    MARK      'MARKER'                 'INTEND'
    MARK      'MARKER'                 'INTORG'
    X0001359  C0000098  -1.000000000000e+00
    X0001359  C0000993   1.000000000000e+00
    X0001359  C0000995   1.000000000000e+00
    X0001359  C0000996   1.000000000000e+00
    MARK      'MARKER'                 'INTEND'
    MARK      'MARKER'                 'INTORG'
    X0001360  C0000099  -1.000000000000e+00
    X0001360  C0000997   1.000000000000e+00
    X0001360  C0000999   1.000000000000e+00
    X0001360  C0001000   1.000000000000e+00
    MARK      'MARKER'                 'INTEND'
    MARK      'MARKER'                 'INTORG'
    X0001361  C0000100  -1.000000000000e+00
    X0001361  C0001001   1.000000000000e+00
    X0001361  C0001003   1.000000000000e+00
    X0001361  C0001004   1.000000000000e+00
    MARK      'MARKER'                 'INTEND'
    MARK      'MARKER'                 'INTORG'
    X0001362  C0000101  -1.000000000000e+00
    X0001362  C0001005   1.000000000000e+00
    X0001362  C0001007   1.000000000000e+00
    X0001362  C0001008   1.000000000000e+00
    MARK      'MARKER'                 'INTEND'
    MARK      'MARKER'                 'INTORG'
    X0001363  C0000102  -1.000000000000e+00
    X0001363  C0001009   1.000000000000e+00
    X0001363  C0001011   1.000000000000e+00
    X0001363  C0001012   1.000000000000e+00
    MARK      'MARKER'                 'INTEND'
    MARK      'MARKER'                 'INTORG'
    X0001364  C0000103  -1.000000000000e+00
    X0001364  C0001014   1.000000000000e+00
    MARK      'MARKER'                 'INTEND'
    MARK      'MARKER'                 'INTORG'
    X0001365  C0000104  -1.000000000000e+00
    X0001365  C0001019   1.000000000000e+00
    MARK      'MARKER'                 'INTEND'
    MARK      'MARKER'                 'INTORG'
    X0001366  C0000106  -1.000000000000e+00
    X0001366  C0001028   1.000000000000e+00
    X0001366  C0001030   1.000000000000e+00
    X0001366  C0001031   1.000000000000e+00
    MARK      'MARKER'                 'INTEND'
    MARK      'MARKER'                 'INTORG'
    X0001367  C0000115  -1.000000000000e+00
    X0001367  C0001067   1.000000000000e+00
    MARK      'MARKER'                 'INTEND'
    MARK      'MARKER'                 'INTORG'
    X0001368  C0000107  -1.000000000000e+00
    X0001368  C0001032   1.000000000000e+00
    X0001368  C0001034   1.000000000000e+00
    X0001368  C0001035   1.000000000000e+00
    MARK      'MARKER'                 'INTEND'
    MARK      'MARKER'                 'INTORG'
    X0001369  C0000108  -1.000000000000e+00
    X0001369  C0001036   1.000000000000e+00
    X0001369  C0001038   1.000000000000e+00
    X0001369  C0001039   1.000000000000e+00
    MARK      'MARKER'                 'INTEND'
    MARK      'MARKER'                 'INTORG'
    X0001370  C0000109  -1.000000000000e+00
    X0001370  C0001040   1.000000000000e+00
    X0001370  C0001042   1.000000000000e+00
    X0001370  C0001043   1.000000000000e+00
    MARK      'MARKER'                 'INTEND'
    MARK      'MARKER'                 'INTORG'
    X0001371  C0000110  -1.000000000000e+00
    X0001371  C0001044   1.000000000000e+00
    X0001371  C0001046   1.000000000000e+00
    X0001371  C0001047   1.000000000000e+00
    MARK      'MARKER'                 'INTEND'
    MARK      'MARKER'                 'INTORG'
    X0001372  C0000111  -1.000000000000e+00
    X0001372  C0001048   1.000000000000e+00
    X0001372  C0001050   1.000000000000e+00
    X0001372  C0001051   1.000000000000e+00
    MARK      'MARKER'                 'INTEND'
    MARK      'MARKER'                 'INTORG'
    X0001373  C0000112  -1.000000000000e+00
    X0001373  C0001052   1.000000000000e+00
    X0001373  C0001054   1.000000000000e+00
    X0001373  C0001055   1.000000000000e+00
    MARK      'MARKER'                 'INTEND'
    MARK      'MARKER'                 'INTORG'
    X0001374  C0000113  -1.000000000000e+00
    X0001374  C0001057   1.000000000000e+00
    MARK      'MARKER'                 'INTEND'
    MARK      'MARKER'                 'INTORG'
    X0001375  C0000114  -1.000000000000e+00
    X0001375  C0001062   1.000000000000e+00
    MARK      'MARKER'                 'INTEND'
    MARK      'MARKER'                 'INTORG'
    X0001376  C0000116  -1.000000000000e+00
    X0001376  C0001071   1.000000000000e+00
    X0001376  C0001073   1.000000000000e+00
    X0001376  C0001074   1.000000000000e+00
    MARK      'MARKER'                 'INTEND'
    MARK      'MARKER'                 'INTORG'
    X0001377  C0000125  -1.000000000000e+00
    X0001377  C0001110   1.000000000000e+00
    MARK      'MARKER'                 'INTEND'
    MARK      'MARKER'                 'INTORG'
    X0001378  C0000117  -1.000000000000e+00
    X0001378  C0001075   1.000000000000e+00
    X0001378  C0001077   1.000000000000e+00
    X0001378  C0001078   1.000000000000e+00
    MARK      'MARKER'                 'INTEND'
    MARK      'MARKER'                 'INTORG'
    X0001379  C0000118  -1.000000000000e+00
    X0001379  C0001079   1.000000000000e+00
    X0001379  C0001081   1.000000000000e+00
    X0001379  C0001082   1.000000000000e+00
    MARK      'MARKER'                 'INTEND'
    MARK      'MARKER'                 'INTORG'
    X0001380  C0000119  -1.000000000000e+00
    X0001380  C0001083   1.000000000000e+00
    X0001380  C0001085   1.000000000000e+00
    X0001380  C0001086   1.000000000000e+00
    MARK      'MARKER'                 'INTEND'
    MARK      'MARKER'                 'INTORG'
    X0001381  C0000120  -1.000000000000e+00
    X0001381  C0001087   1.000000000000e+00
    X0001381  C0001089   1.000000000000e+00
    X0001381  C0001090   1.000000000000e+00
    MARK      'MARKER'                 'INTEND'
    MARK      'MARKER'                 'INTORG'
    X0001382  C0000121  -1.000000000000e+00
    X0001382  C0001091   1.000000000000e+00
    X0001382  C0001093   1.000000000000e+00
    X0001382  C0001094   1.000000000000e+00
    MARK      'MARKER'                 'INTEND'
    MARK      'MARKER'                 'INTORG'
    X0001383  C0000122  -1.000000000000e+00
    X0001383  C0001095   1.000000000000e+00
    X0001383  C0001097   1.000000000000e+00
    X0001383  C0001098   1.000000000000e+00
    MARK      'MARKER'                 'INTEND'
    MARK      'MARKER'                 'INTORG'
    X0001384  C0000123  -1.000000000000e+00
    X0001384  C0001100   1.000000000000e+00
    MARK      'MARKER'                 'INTEND'
    MARK      'MARKER'                 'INTORG'
    X0001385  C0000124  -1.000000000000e+00
    X0001385  C0001105   1.000000000000e+00
    MARK      'MARKER'                 'INTEND'
    MARK      'MARKER'                 'INTORG'
    X0001386  C0000126  -1.000000000000e+00
    X0001386  C0001114   1.000000000000e+00
    X0001386  C0001116   1.000000000000e+00
    X0001386  C0001117   1.000000000000e+00
    MARK      'MARKER'                 'INTEND'
    MARK      'MARKER'                 'INTORG'
    X0001387  C0000135  -1.000000000000e+00
    X0001387  C0001153   1.000000000000e+00
    MARK      'MARKER'                 'INTEND'
    MARK      'MARKER'                 'INTORG'
    X0001388  C0000127  -1.000000000000e+00
    X0001388  C0001118   1.000000000000e+00
    X0001388  C0001120   1.000000000000e+00
    X0001388  C0001121   1.000000000000e+00
    MARK      'MARKER'                 'INTEND'
    MARK      'MARKER'                 'INTORG'
    X0001389  C0000128  -1.000000000000e+00
    X0001389  C0001122   1.000000000000e+00
    X0001389  C0001124   1.000000000000e+00
    X0001389  C0001125   1.000000000000e+00
    MARK      'MARKER'                 'INTEND'
    MARK      'MARKER'                 'INTORG'
    X0001390  C0000129  -1.000000000000e+00
    X0001390  C0001126   1.000000000000e+00
    X0001390  C0001128   1.000000000000e+00
    X0001390  C0001129   1.000000000000e+00
    MARK      'MARKER'                 'INTEND'
    MARK      'MARKER'                 'INTORG'
    X0001391  C0000130  -1.000000000000e+00
    X0001391  C0001130   1.000000000000e+00
    X0001391  C0001132   1.000000000000e+00
    X0001391  C0001133   1.000000000000e+00
    MARK      'MARKER'                 'INTEND'
    MARK      'MARKER'                 'INTORG'
    X0001392  C0000131  -1.000000000000e+00
    X0001392  C0001134   1.000000000000e+00
    X0001392  C0001136   1.000000000000e+00
    X0001392  C0001137   1.000000000000e+00
    MARK      'MARKER'                 'INTEND'
    MARK      'MARKER'                 'INTORG'
    X0001393  C0000132  -1.000000000000e+00
    X0001393  C0001138   1.000000000000e+00
    X0001393  C0001140   1.000000000000e+00
    X0001393  C0001141   1.000000000000e+00
    MARK      'MARKER'                 'INTEND'
    MARK      'MARKER'                 'INTORG'
    X0001394  C0000133  -1.000000000000e+00
    X0001394  C0001143   1.000000000000e+00
    MARK      'MARKER'                 'INTEND'
    MARK      'MARKER'                 'INTORG'
    X0001395  C0000134  -1.000000000000e+00
    X0001395  C0001148   1.000000000000e+00
    MARK      'MARKER'                 'INTEND'
    MARK      'MARKER'                 'INTORG'
    X0001396  C0000136  -1.000000000000e+00
    X0001396  C0001157   1.000000000000e+00
    X0001396  C0001159   1.000000000000e+00
    X0001396  C0001160   1.000000000000e+00
    MARK      'MARKER'                 'INTEND'
    MARK      'MARKER'                 'INTORG'
    X0001397  C0000145  -1.000000000000e+00
    X0001397  C0001196   1.000000000000e+00
    MARK      'MARKER'                 'INTEND'
    MARK      'MARKER'                 'INTORG'
    X0001398  C0000137  -1.000000000000e+00
    X0001398  C0001161   1.000000000000e+00
    X0001398  C0001163   1.000000000000e+00
    X0001398  C0001164   1.000000000000e+00
    MARK      'MARKER'                 'INTEND'
    MARK      'MARKER'                 'INTORG'
    X0001399  C0000138  -1.000000000000e+00
    X0001399  C0001165   1.000000000000e+00
    X0001399  C0001167   1.000000000000e+00
    X0001399  C0001168   1.000000000000e+00
    MARK      'MARKER'                 'INTEND'
    MARK      'MARKER'                 'INTORG'
    X0001400  C0000139  -1.000000000000e+00
    X0001400  C0001169   1.000000000000e+00
    X0001400  C0001171   1.000000000000e+00
    X0001400  C0001172   1.000000000000e+00
    MARK      'MARKER'                 'INTEND'
    MARK      'MARKER'                 'INTORG'
    X0001401  C0000140  -1.000000000000e+00
    X0001401  C0001173   1.000000000000e+00
    X0001401  C0001175   1.000000000000e+00
    X0001401  C0001176   1.000000000000e+00
    MARK      'MARKER'                 'INTEND'
    MARK      'MARKER'                 'INTORG'
    X0001402  C0000141  -1.000000000000e+00
    X0001402  C0001177   1.000000000000e+00
    X0001402  C0001179   1.000000000000e+00
    X0001402  C0001180   1.000000000000e+00
    MARK      'MARKER'                 'INTEND'
    MARK      'MARKER'                 'INTORG'
    X0001403  C0000142  -1.000000000000e+00
    X0001403  C0001181   1.000000000000e+00
    X0001403  C0001183   1.000000000000e+00
    X0001403  C0001184   1.000000000000e+00
    MARK      'MARKER'                 'INTEND'
    MARK      'MARKER'                 'INTORG'
    X0001404  C0000143  -1.000000000000e+00
    X0001404  C0001186   1.000000000000e+00
    MARK      'MARKER'                 'INTEND'
    MARK      'MARKER'                 'INTORG'
    X0001405  C0000144  -1.000000000000e+00
    X0001405  C0001191   1.000000000000e+00
    MARK      'MARKER'                 'INTEND'
    MARK      'MARKER'                 'INTORG'
    X0001406  C0000146  -1.000000000000e+00
    X0001406  C0001200   1.000000000000e+00
    X0001406  C0001202   1.000000000000e+00
    X0001406  C0001203   1.000000000000e+00
    MARK      'MARKER'                 'INTEND'
    MARK      'MARKER'                 'INTORG'
    X0001407  C0000155  -1.000000000000e+00
    X0001407  C0001239   1.000000000000e+00
    MARK      'MARKER'                 'INTEND'
    MARK      'MARKER'                 'INTORG'
    X0001408  C0000147  -1.000000000000e+00
    X0001408  C0001204   1.000000000000e+00
    X0001408  C0001206   1.000000000000e+00
    X0001408  C0001207   1.000000000000e+00
    MARK      'MARKER'                 'INTEND'
    MARK      'MARKER'                 'INTORG'
    X0001409  C0000148  -1.000000000000e+00
    X0001409  C0001208   1.000000000000e+00
    X0001409  C0001210   1.000000000000e+00
    X0001409  C0001211   1.000000000000e+00
    MARK      'MARKER'                 'INTEND'
    MARK      'MARKER'                 'INTORG'
    X0001410  C0000149  -1.000000000000e+00
    X0001410  C0001212   1.000000000000e+00
    X0001410  C0001214   1.000000000000e+00
    X0001410  C0001215   1.000000000000e+00
    MARK      'MARKER'                 'INTEND'
    MARK      'MARKER'                 'INTORG'
    X0001411  C0000150  -1.000000000000e+00
    X0001411  C0001216   1.000000000000e+00
    X0001411  C0001218   1.000000000000e+00
    X0001411  C0001219   1.000000000000e+00
    MARK      'MARKER'                 'INTEND'
    MARK      'MARKER'                 'INTORG'
    X0001412  C0000151  -1.000000000000e+00
    X0001412  C0001220   1.000000000000e+00
    X0001412  C0001222   1.000000000000e+00
    X0001412  C0001223   1.000000000000e+00
    MARK      'MARKER'                 'INTEND'
    MARK      'MARKER'                 'INTORG'
    X0001413  C0000152  -1.000000000000e+00
    X0001413  C0001224   1.000000000000e+00
    X0001413  C0001226   1.000000000000e+00
    X0001413  C0001227   1.000000000000e+00
    MARK      'MARKER'                 'INTEND'
    MARK      'MARKER'                 'INTORG'
    X0001414  C0000153  -1.000000000000e+00
    X0001414  C0001229   1.000000000000e+00
    MARK      'MARKER'                 'INTEND'
    MARK      'MARKER'                 'INTORG'
    X0001415  C0000154  -1.000000000000e+00
    X0001415  C0001234   1.000000000000e+00
    MARK      'MARKER'                 'INTEND'
    MARK      'MARKER'                 'INTORG'
    X0001416  C0000156  -1.000000000000e+00
    X0001416  C0001243   1.000000000000e+00
    X0001416  C0001245   1.000000000000e+00
    X0001416  C0001246   1.000000000000e+00
    MARK      'MARKER'                 'INTEND'
    MARK      'MARKER'                 'INTORG'
    X0001417  C0000165  -1.000000000000e+00
    X0001417  C0001282   1.000000000000e+00
    MARK      'MARKER'                 'INTEND'
    MARK      'MARKER'                 'INTORG'
    X0001418  C0000157  -1.000000000000e+00
    X0001418  C0001247   1.000000000000e+00
    X0001418  C0001249   1.000000000000e+00
    X0001418  C0001250   1.000000000000e+00
    MARK      'MARKER'                 'INTEND'
    MARK      'MARKER'                 'INTORG'
    X0001419  C0000158  -1.000000000000e+00
    X0001419  C0001251   1.000000000000e+00
    X0001419  C0001253   1.000000000000e+00
    X0001419  C0001254   1.000000000000e+00
    MARK      'MARKER'                 'INTEND'
    MARK      'MARKER'                 'INTORG'
    X0001420  C0000159  -1.000000000000e+00
    X0001420  C0001255   1.000000000000e+00
    X0001420  C0001257   1.000000000000e+00
    X0001420  C0001258   1.000000000000e+00
    MARK      'MARKER'                 'INTEND'
    MARK      'MARKER'                 'INTORG'
    X0001421  C0000160  -1.000000000000e+00
    X0001421  C0001259   1.000000000000e+00
    X0001421  C0001261   1.000000000000e+00
    X0001421  C0001262   1.000000000000e+00
    MARK      'MARKER'                 'INTEND'
    MARK      'MARKER'                 'INTORG'
    X0001422  C0000161  -1.000000000000e+00
    X0001422  C0001263   1.000000000000e+00
    X0001422  C0001265   1.000000000000e+00
    X0001422  C0001266   1.000000000000e+00
    MARK      'MARKER'                 'INTEND'
    MARK      'MARKER'                 'INTORG'
    X0001423  C0000162  -1.000000000000e+00
    X0001423  C0001267   1.000000000000e+00
    X0001423  C0001269   1.000000000000e+00
    X0001423  C0001270   1.000000000000e+00
    MARK      'MARKER'                 'INTEND'
    MARK      'MARKER'                 'INTORG'
    X0001424  C0000163  -1.000000000000e+00
    X0001424  C0001272   1.000000000000e+00
    MARK      'MARKER'                 'INTEND'
    MARK      'MARKER'                 'INTORG'
    X0001425  C0000164  -1.000000000000e+00
    X0001425  C0001277   1.000000000000e+00
    MARK      'MARKER'                 'INTEND'
    MARK      'MARKER'                 'INTORG'
    X0001426  C0000166  -1.000000000000e+00
    X0001426  C0001286   1.000000000000e+00
    X0001426  C0001288   1.000000000000e+00
    X0001426  C0001289   1.000000000000e+00
    MARK      'MARKER'                 'INTEND'
    MARK      'MARKER'                 'INTORG'
    X0001427  C0000175  -1.000000000000e+00
    X0001427  C0001325   1.000000000000e+00
    MARK      'MARKER'                 'INTEND'
    MARK      'MARKER'                 'INTORG'
    X0001428  C0000167  -1.000000000000e+00
    X0001428  C0001290   1.000000000000e+00
    X0001428  C0001292   1.000000000000e+00
    X0001428  C0001293   1.000000000000e+00
    MARK      'MARKER'                 'INTEND'
    MARK      'MARKER'                 'INTORG'
    X0001429  C0000168  -1.000000000000e+00
    X0001429  C0001294   1.000000000000e+00
    X0001429  C0001296   1.000000000000e+00
    X0001429  C0001297   1.000000000000e+00
    MARK      'MARKER'                 'INTEND'
    MARK      'MARKER'                 'INTORG'
    X0001430  C0000169  -1.000000000000e+00
    X0001430  C0001298   1.000000000000e+00
    X0001430  C0001300   1.000000000000e+00
    X0001430  C0001301   1.000000000000e+00
    MARK      'MARKER'                 'INTEND'
    MARK      'MARKER'                 'INTORG'
    X0001431  C0000170  -1.000000000000e+00
    X0001431  C0001302   1.000000000000e+00
    X0001431  C0001304   1.000000000000e+00
    X0001431  C0001305   1.000000000000e+00
    MARK      'MARKER'                 'INTEND'
    MARK      'MARKER'                 'INTORG'
    X0001432  C0000171  -1.000000000000e+00
    X0001432  C0001306   1.000000000000e+00
    X0001432  C0001308   1.000000000000e+00
    X0001432  C0001309   1.000000000000e+00
    MARK      'MARKER'                 'INTEND'
    MARK      'MARKER'                 'INTORG'
    X0001433  C0000172  -1.000000000000e+00
    X0001433  C0001310   1.000000000000e+00
    X0001433  C0001312   1.000000000000e+00
    X0001433  C0001313   1.000000000000e+00
    MARK      'MARKER'                 'INTEND'
    MARK      'MARKER'                 'INTORG'
    X0001434  C0000173  -1.000000000000e+00
    X0001434  C0001315   1.000000000000e+00
    MARK      'MARKER'                 'INTEND'
    MARK      'MARKER'                 'INTORG'
    X0001435  C0000174  -1.000000000000e+00
    X0001435  C0001320   1.000000000000e+00
    MARK      'MARKER'                 'INTEND'
    MARK      'MARKER'                 'INTORG'
    X0001436  C0000176  -1.000000000000e+00
    X0001436  C0001329   1.000000000000e+00
    X0001436  C0001331   1.000000000000e+00
    X0001436  C0001332   1.000000000000e+00
    MARK      'MARKER'                 'INTEND'
    MARK      'MARKER'                 'INTORG'
    X0001437  C0000185  -1.000000000000e+00
    X0001437  C0001368   1.000000000000e+00
    MARK      'MARKER'                 'INTEND'
    MARK      'MARKER'                 'INTORG'
    X0001438  C0000177  -1.000000000000e+00
    X0001438  C0001333   1.000000000000e+00
    X0001438  C0001335   1.000000000000e+00
    X0001438  C0001336   1.000000000000e+00
    MARK      'MARKER'                 'INTEND'
    MARK      'MARKER'                 'INTORG'
    X0001439  C0000178  -1.000000000000e+00
    X0001439  C0001337   1.000000000000e+00
    X0001439  C0001339   1.000000000000e+00
    X0001439  C0001340   1.000000000000e+00
    MARK      'MARKER'                 'INTEND'
    MARK      'MARKER'                 'INTORG'
    X0001440  C0000179  -1.000000000000e+00
    X0001440  C0001341   1.000000000000e+00
    X0001440  C0001343   1.000000000000e+00
    X0001440  C0001344   1.000000000000e+00
    MARK      'MARKER'                 'INTEND'
    MARK      'MARKER'                 'INTORG'
    X0001441  C0000180  -1.000000000000e+00
    X0001441  C0001345   1.000000000000e+00
    X0001441  C0001347   1.000000000000e+00
    X0001441  C0001348   1.000000000000e+00
    MARK      'MARKER'                 'INTEND'
    MARK      'MARKER'                 'INTORG'
    X0001442  C0000181  -1.000000000000e+00
    X0001442  C0001349   1.000000000000e+00
    X0001442  C0001351   1.000000000000e+00
    X0001442  C0001352   1.000000000000e+00
    MARK      'MARKER'                 'INTEND'
    MARK      'MARKER'                 'INTORG'
    X0001443  C0000182  -1.000000000000e+00
    X0001443  C0001353   1.000000000000e+00
    X0001443  C0001355   1.000000000000e+00
    X0001443  C0001356   1.000000000000e+00
    MARK      'MARKER'                 'INTEND'
    MARK      'MARKER'                 'INTORG'
    X0001444  C0000183  -1.000000000000e+00
    X0001444  C0001358   1.000000000000e+00
    MARK      'MARKER'                 'INTEND'
    MARK      'MARKER'                 'INTORG'
    X0001445  C0000184  -1.000000000000e+00
    X0001445  C0001363   1.000000000000e+00
    MARK      'MARKER'                 'INTEND'
    MARK      'MARKER'                 'INTORG'
    X0001446  C0000186  -1.000000000000e+00
    X0001446  C0001372   1.000000000000e+00
    X0001446  C0001374   1.000000000000e+00
    X0001446  C0001375   1.000000000000e+00
    MARK      'MARKER'                 'INTEND'
    MARK      'MARKER'                 'INTORG'
    X0001447  C0000195  -1.000000000000e+00
    X0001447  C0001411   1.000000000000e+00
    MARK      'MARKER'                 'INTEND'
    MARK      'MARKER'                 'INTORG'
    X0001448  C0000187  -1.000000000000e+00
    X0001448  C0001376   1.000000000000e+00
    X0001448  C0001378   1.000000000000e+00
    X0001448  C0001379   1.000000000000e+00
    MARK      'MARKER'                 'INTEND'
    MARK      'MARKER'                 'INTORG'
    X0001449  C0000188  -1.000000000000e+00
    X0001449  C0001380   1.000000000000e+00
    X0001449  C0001382   1.000000000000e+00
    X0001449  C0001383   1.000000000000e+00
    MARK      'MARKER'                 'INTEND'
    MARK      'MARKER'                 'INTORG'
    X0001450  C0000189  -1.000000000000e+00
    X0001450  C0001384   1.000000000000e+00
    X0001450  C0001386   1.000000000000e+00
    X0001450  C0001387   1.000000000000e+00
    MARK      'MARKER'                 'INTEND'
    MARK      'MARKER'                 'INTORG'
    X0001451  C0000190  -1.000000000000e+00
    X0001451  C0001388   1.000000000000e+00
    X0001451  C0001390   1.000000000000e+00
    X0001451  C0001391   1.000000000000e+00
    MARK      'MARKER'                 'INTEND'
    MARK      'MARKER'                 'INTORG'
    X0001452  C0000191  -1.000000000000e+00
    X0001452  C0001392   1.000000000000e+00
    X0001452  C0001394   1.000000000000e+00
    X0001452  C0001395   1.000000000000e+00
    MARK      'MARKER'                 'INTEND'
    MARK      'MARKER'                 'INTORG'
    X0001453  C0000192  -1.000000000000e+00
    X0001453  C0001396   1.000000000000e+00
    X0001453  C0001398   1.000000000000e+00
    X0001453  C0001399   1.000000000000e+00
    MARK      'MARKER'                 'INTEND'
    MARK      'MARKER'                 'INTORG'
    X0001454  C0000193  -1.000000000000e+00
    X0001454  C0001401   1.000000000000e+00
    MARK      'MARKER'                 'INTEND'
    MARK      'MARKER'                 'INTORG'
    X0001455  C0000194  -1.000000000000e+00
    X0001455  C0001406   1.000000000000e+00
    MARK      'MARKER'                 'INTEND'
    MARK      'MARKER'                 'INTORG'
    X0001456  C0000196  -1.000000000000e+00
    X0001456  C0001415   1.000000000000e+00
    X0001456  C0001417   1.000000000000e+00
    X0001456  C0001418   1.000000000000e+00
    MARK      'MARKER'                 'INTEND'
    MARK      'MARKER'                 'INTORG'
    X0001457  C0000205  -1.000000000000e+00
    X0001457  C0001454   1.000000000000e+00
    MARK      'MARKER'                 'INTEND'
    MARK      'MARKER'                 'INTORG'
    X0001458  C0000197  -1.000000000000e+00
    X0001458  C0001419   1.000000000000e+00
    X0001458  C0001421   1.000000000000e+00
    X0001458  C0001422   1.000000000000e+00
    MARK      'MARKER'                 'INTEND'
    MARK      'MARKER'                 'INTORG'
    X0001459  C0000198  -1.000000000000e+00
    X0001459  C0001423   1.000000000000e+00
    X0001459  C0001425   1.000000000000e+00
    X0001459  C0001426   1.000000000000e+00
    MARK      'MARKER'                 'INTEND'
    MARK      'MARKER'                 'INTORG'
    X0001460  C0000199  -1.000000000000e+00
    X0001460  C0001427   1.000000000000e+00
    X0001460  C0001429   1.000000000000e+00
    X0001460  C0001430   1.000000000000e+00
    MARK      'MARKER'                 'INTEND'
    MARK      'MARKER'                 'INTORG'
    X0001461  C0000200  -1.000000000000e+00
    X0001461  C0001431   1.000000000000e+00
    X0001461  C0001433   1.000000000000e+00
    X0001461  C0001434   1.000000000000e+00
    MARK      'MARKER'                 'INTEND'
    MARK      'MARKER'                 'INTORG'
    X0001462  C0000201  -1.000000000000e+00
    X0001462  C0001435   1.000000000000e+00
    X0001462  C0001437   1.000000000000e+00
    X0001462  C0001438   1.000000000000e+00
    MARK      'MARKER'                 'INTEND'
    MARK      'MARKER'                 'INTORG'
    X0001463  C0000202  -1.000000000000e+00
    X0001463  C0001439   1.000000000000e+00
    X0001463  C0001441   1.000000000000e+00
    X0001463  C0001442   1.000000000000e+00
    MARK      'MARKER'                 'INTEND'
    MARK      'MARKER'                 'INTORG'
    X0001464  C0000203  -1.000000000000e+00
    X0001464  C0001444   1.000000000000e+00
    MARK      'MARKER'                 'INTEND'
    MARK      'MARKER'                 'INTORG'
    X0001465  C0000204  -1.000000000000e+00
    X0001465  C0001449   1.000000000000e+00
    MARK      'MARKER'                 'INTEND'
    MARK      'MARKER'                 'INTORG'
    X0001466  C0000206  -1.000000000000e+00
    X0001466  C0001458   1.000000000000e+00
    X0001466  C0001460   1.000000000000e+00
    X0001466  C0001461   1.000000000000e+00
    MARK      'MARKER'                 'INTEND'
    MARK      'MARKER'                 'INTORG'
    X0001467  C0000215  -1.000000000000e+00
    X0001467  C0001497   1.000000000000e+00
    MARK      'MARKER'                 'INTEND'
    MARK      'MARKER'                 'INTORG'
    X0001468  C0000207  -1.000000000000e+00
    X0001468  C0001462   1.000000000000e+00
    X0001468  C0001464   1.000000000000e+00
    X0001468  C0001465   1.000000000000e+00
    MARK      'MARKER'                 'INTEND'
    MARK      'MARKER'                 'INTORG'
    X0001469  C0000208  -1.000000000000e+00
    X0001469  C0001466   1.000000000000e+00
    X0001469  C0001468   1.000000000000e+00
    X0001469  C0001469   1.000000000000e+00
    MARK      'MARKER'                 'INTEND'
    MARK      'MARKER'                 'INTORG'
    X0001470  C0000209  -1.000000000000e+00
    X0001470  C0001470   1.000000000000e+00
    X0001470  C0001472   1.000000000000e+00
    X0001470  C0001473   1.000000000000e+00
    MARK      'MARKER'                 'INTEND'
    MARK      'MARKER'                 'INTORG'
    X0001471  C0000210  -1.000000000000e+00
    X0001471  C0001474   1.000000000000e+00
    X0001471  C0001476   1.000000000000e+00
    X0001471  C0001477   1.000000000000e+00
    MARK      'MARKER'                 'INTEND'
    MARK      'MARKER'                 'INTORG'
    X0001472  C0000211  -1.000000000000e+00
    X0001472  C0001478   1.000000000000e+00
    X0001472  C0001480   1.000000000000e+00
    X0001472  C0001481   1.000000000000e+00
    MARK      'MARKER'                 'INTEND'
    MARK      'MARKER'                 'INTORG'
    X0001473  C0000212  -1.000000000000e+00
    X0001473  C0001482   1.000000000000e+00
    X0001473  C0001484   1.000000000000e+00
    X0001473  C0001485   1.000000000000e+00
    MARK      'MARKER'                 'INTEND'
    MARK      'MARKER'                 'INTORG'
    X0001474  C0000213  -1.000000000000e+00
    X0001474  C0001487   1.000000000000e+00
    MARK      'MARKER'                 'INTEND'
    MARK      'MARKER'                 'INTORG'
    X0001475  C0000214  -1.000000000000e+00
    X0001475  C0001492   1.000000000000e+00
    MARK      'MARKER'                 'INTEND'
    MARK      'MARKER'                 'INTORG'
    X0001476  C0000216  -1.000000000000e+00
    X0001476  C0001501   1.000000000000e+00
    X0001476  C0001503   1.000000000000e+00
    X0001476  C0001504   1.000000000000e+00
    MARK      'MARKER'                 'INTEND'
    MARK      'MARKER'                 'INTORG'
    X0001477  C0000225  -1.000000000000e+00
    X0001477  C0001540   1.000000000000e+00
    MARK      'MARKER'                 'INTEND'
    MARK      'MARKER'                 'INTORG'
    X0001478  C0000217  -1.000000000000e+00
    X0001478  C0001505   1.000000000000e+00
    X0001478  C0001507   1.000000000000e+00
    X0001478  C0001508   1.000000000000e+00
    MARK      'MARKER'                 'INTEND'
    MARK      'MARKER'                 'INTORG'
    X0001479  C0000218  -1.000000000000e+00
    X0001479  C0001509   1.000000000000e+00
    X0001479  C0001511   1.000000000000e+00
    X0001479  C0001512   1.000000000000e+00
    MARK      'MARKER'                 'INTEND'
    MARK      'MARKER'                 'INTORG'
    X0001480  C0000219  -1.000000000000e+00
    X0001480  C0001513   1.000000000000e+00
    X0001480  C0001515   1.000000000000e+00
    X0001480  C0001516   1.000000000000e+00
    MARK      'MARKER'                 'INTEND'
    MARK      'MARKER'                 'INTORG'
    X0001481  C0000220  -1.000000000000e+00
    X0001481  C0001517   1.000000000000e+00
    X0001481  C0001519   1.000000000000e+00
    X0001481  C0001520   1.000000000000e+00
    MARK      'MARKER'                 'INTEND'
    MARK      'MARKER'                 'INTORG'
    X0001482  C0000221  -1.000000000000e+00
    X0001482  C0001521   1.000000000000e+00
    X0001482  C0001523   1.000000000000e+00
    X0001482  C0001524   1.000000000000e+00
    MARK      'MARKER'                 'INTEND'
    MARK      'MARKER'                 'INTORG'
    X0001483  C0000222  -1.000000000000e+00
    X0001483  C0001525   1.000000000000e+00
    X0001483  C0001527   1.000000000000e+00
    X0001483  C0001528   1.000000000000e+00
    MARK      'MARKER'                 'INTEND'
    MARK      'MARKER'                 'INTORG'
    X0001484  C0000223  -1.000000000000e+00
    X0001484  C0001530   1.000000000000e+00
    MARK      'MARKER'                 'INTEND'
    MARK      'MARKER'                 'INTORG'
    X0001485  C0000224  -1.000000000000e+00
    X0001485  C0001535   1.000000000000e+00
    MARK      'MARKER'                 'INTEND'
    MARK      'MARKER'                 'INTORG'
    X0001486  C0000226  -1.000000000000e+00
    X0001486  C0001544   1.000000000000e+00
    X0001486  C0001546   1.000000000000e+00
    X0001486  C0001547   1.000000000000e+00
    MARK      'MARKER'                 'INTEND'
    MARK      'MARKER'                 'INTORG'
    X0001487  C0000235  -1.000000000000e+00
    X0001487  C0001583   1.000000000000e+00
    MARK      'MARKER'                 'INTEND'
    MARK      'MARKER'                 'INTORG'
    X0001488  C0000227  -1.000000000000e+00
    X0001488  C0001548   1.000000000000e+00
    X0001488  C0001550   1.000000000000e+00
    X0001488  C0001551   1.000000000000e+00
    MARK      'MARKER'                 'INTEND'
    MARK      'MARKER'                 'INTORG'
    X0001489  C0000228  -1.000000000000e+00
    X0001489  C0001552   1.000000000000e+00
    X0001489  C0001554   1.000000000000e+00
    X0001489  C0001555   1.000000000000e+00
    MARK      'MARKER'                 'INTEND'
    MARK      'MARKER'                 'INTORG'
    X0001490  C0000229  -1.000000000000e+00
    X0001490  C0001556   1.000000000000e+00
    X0001490  C0001558   1.000000000000e+00
    X0001490  C0001559   1.000000000000e+00
    MARK      'MARKER'                 'INTEND'
    MARK      'MARKER'                 'INTORG'
    X0001491  C0000230  -1.000000000000e+00
    X0001491  C0001560   1.000000000000e+00
    X0001491  C0001562   1.000000000000e+00
    X0001491  C0001563   1.000000000000e+00
    MARK      'MARKER'                 'INTEND'
    MARK      'MARKER'                 'INTORG'
    X0001492  C0000231  -1.000000000000e+00
    X0001492  C0001564   1.000000000000e+00
    X0001492  C0001566   1.000000000000e+00
    X0001492  C0001567   1.000000000000e+00
    MARK      'MARKER'                 'INTEND'
    MARK      'MARKER'                 'INTORG'
    X0001493  C0000232  -1.000000000000e+00
    X0001493  C0001568   1.000000000000e+00
    X0001493  C0001570   1.000000000000e+00
    X0001493  C0001571   1.000000000000e+00
    MARK      'MARKER'                 'INTEND'
    MARK      'MARKER'                 'INTORG'
    X0001494  C0000233  -1.000000000000e+00
    X0001494  C0001573   1.000000000000e+00
    MARK      'MARKER'                 'INTEND'
    MARK      'MARKER'                 'INTORG'
    X0001495  C0000234  -1.000000000000e+00
    X0001495  C0001578   1.000000000000e+00
    MARK      'MARKER'                 'INTEND'
    MARK      'MARKER'                 'INTORG'
    X0001496  C0000236  -1.000000000000e+00
    X0001496  C0001587   1.000000000000e+00
    X0001496  C0001589   1.000000000000e+00
    X0001496  C0001590   1.000000000000e+00
    MARK      'MARKER'                 'INTEND'
    MARK      'MARKER'                 'INTORG'
    X0001497  C0000245  -1.000000000000e+00
    X0001497  C0001626   1.000000000000e+00
    MARK      'MARKER'                 'INTEND'
    MARK      'MARKER'                 'INTORG'
    X0001498  C0000237  -1.000000000000e+00
    X0001498  C0001591   1.000000000000e+00
    X0001498  C0001593   1.000000000000e+00
    X0001498  C0001594   1.000000000000e+00
    MARK      'MARKER'                 'INTEND'
    MARK      'MARKER'                 'INTORG'
    X0001499  C0000238  -1.000000000000e+00
    X0001499  C0001595   1.000000000000e+00
    X0001499  C0001597   1.000000000000e+00
    X0001499  C0001598   1.000000000000e+00
    MARK      'MARKER'                 'INTEND'
    MARK      'MARKER'                 'INTORG'
    X0001500  C0000239  -1.000000000000e+00
    X0001500  C0001599   1.000000000000e+00
    X0001500  C0001601   1.000000000000e+00
    X0001500  C0001602   1.000000000000e+00
    MARK      'MARKER'                 'INTEND'
    MARK      'MARKER'                 'INTORG'
    X0001501  C0000240  -1.000000000000e+00
    X0001501  C0001603   1.000000000000e+00
    X0001501  C0001605   1.000000000000e+00
    X0001501  C0001606   1.000000000000e+00
    MARK      'MARKER'                 'INTEND'
    MARK      'MARKER'                 'INTORG'
    X0001502  C0000241  -1.000000000000e+00
    X0001502  C0001607   1.000000000000e+00
    X0001502  C0001609   1.000000000000e+00
    X0001502  C0001610   1.000000000000e+00
    MARK      'MARKER'                 'INTEND'
    MARK      'MARKER'                 'INTORG'
    X0001503  C0000242  -1.000000000000e+00
    X0001503  C0001611   1.000000000000e+00
    X0001503  C0001613   1.000000000000e+00
    X0001503  C0001614   1.000000000000e+00
    MARK      'MARKER'                 'INTEND'
    MARK      'MARKER'                 'INTORG'
    X0001504  C0000243  -1.000000000000e+00
    X0001504  C0001616   1.000000000000e+00
    MARK      'MARKER'                 'INTEND'
    MARK      'MARKER'                 'INTORG'
    X0001505  C0000244  -1.000000000000e+00
    X0001505  C0001621   1.000000000000e+00
    MARK      'MARKER'                 'INTEND'
    MARK      'MARKER'                 'INTORG'
    X0001506  C0000246  -1.000000000000e+00
    X0001506  C0001630   1.000000000000e+00
    X0001506  C0001632   1.000000000000e+00
    X0001506  C0001633   1.000000000000e+00
    MARK      'MARKER'                 'INTEND'
    MARK      'MARKER'                 'INTORG'
    X0001507  C0000255  -1.000000000000e+00
    X0001507  C0001669   1.000000000000e+00
    MARK      'MARKER'                 'INTEND'
    MARK      'MARKER'                 'INTORG'
    X0001508  C0000247  -1.000000000000e+00
    X0001508  C0001634   1.000000000000e+00
    X0001508  C0001636   1.000000000000e+00
    X0001508  C0001637   1.000000000000e+00
    MARK      'MARKER'                 'INTEND'
    MARK      'MARKER'                 'INTORG'
    X0001509  C0000248  -1.000000000000e+00
    X0001509  C0001638   1.000000000000e+00
    X0001509  C0001640   1.000000000000e+00
    X0001509  C0001641   1.000000000000e+00
    MARK      'MARKER'                 'INTEND'
    MARK      'MARKER'                 'INTORG'
    X0001510  C0000249  -1.000000000000e+00
    X0001510  C0001642   1.000000000000e+00
    X0001510  C0001644   1.000000000000e+00
    X0001510  C0001645   1.000000000000e+00
    MARK      'MARKER'                 'INTEND'
    MARK      'MARKER'                 'INTORG'
    X0001511  C0000250  -1.000000000000e+00
    X0001511  C0001646   1.000000000000e+00
    X0001511  C0001648   1.000000000000e+00
    X0001511  C0001649   1.000000000000e+00
    MARK      'MARKER'                 'INTEND'
    MARK      'MARKER'                 'INTORG'
    X0001512  C0000251  -1.000000000000e+00
    X0001512  C0001650   1.000000000000e+00
    X0001512  C0001652   1.000000000000e+00
    X0001512  C0001653   1.000000000000e+00
    MARK      'MARKER'                 'INTEND'
    MARK      'MARKER'                 'INTORG'
    X0001513  C0000252  -1.000000000000e+00
    X0001513  C0001654   1.000000000000e+00
    X0001513  C0001656   1.000000000000e+00
    X0001513  C0001657   1.000000000000e+00
    MARK      'MARKER'                 'INTEND'
    MARK      'MARKER'                 'INTORG'
    X0001514  C0000253  -1.000000000000e+00
    X0001514  C0001659   1.000000000000e+00
    MARK      'MARKER'                 'INTEND'
    MARK      'MARKER'                 'INTORG'
    X0001515  C0000254  -1.000000000000e+00
    X0001515  C0001664   1.000000000000e+00
    MARK      'MARKER'                 'INTEND'
    MARK      'MARKER'                 'INTORG'
    X0001516  C0000256  -1.000000000000e+00
    X0001516  C0001673   1.000000000000e+00
    X0001516  C0001675   1.000000000000e+00
    X0001516  C0001676   1.000000000000e+00
    MARK      'MARKER'                 'INTEND'
    MARK      'MARKER'                 'INTORG'
    X0001517  C0000265  -1.000000000000e+00
    X0001517  C0001712   1.000000000000e+00
    MARK      'MARKER'                 'INTEND'
    MARK      'MARKER'                 'INTORG'
    X0001518  C0000257  -1.000000000000e+00
    X0001518  C0001677   1.000000000000e+00
    X0001518  C0001679   1.000000000000e+00
    X0001518  C0001680   1.000000000000e+00
    MARK      'MARKER'                 'INTEND'
    MARK      'MARKER'                 'INTORG'
    X0001519  C0000258  -1.000000000000e+00
    X0001519  C0001681   1.000000000000e+00
    X0001519  C0001683   1.000000000000e+00
    X0001519  C0001684   1.000000000000e+00
    MARK      'MARKER'                 'INTEND'
    MARK      'MARKER'                 'INTORG'
    X0001520  C0000259  -1.000000000000e+00
    X0001520  C0001685   1.000000000000e+00
    X0001520  C0001687   1.000000000000e+00
    X0001520  C0001688   1.000000000000e+00
    MARK      'MARKER'                 'INTEND'
    MARK      'MARKER'                 'INTORG'
    X0001521  C0000260  -1.000000000000e+00
    X0001521  C0001689   1.000000000000e+00
    X0001521  C0001691   1.000000000000e+00
    X0001521  C0001692   1.000000000000e+00
    MARK      'MARKER'                 'INTEND'
    MARK      'MARKER'                 'INTORG'
    X0001522  C0000261  -1.000000000000e+00
    X0001522  C0001693   1.000000000000e+00
    X0001522  C0001695   1.000000000000e+00
    X0001522  C0001696   1.000000000000e+00
    MARK      'MARKER'                 'INTEND'
    MARK      'MARKER'                 'INTORG'
    X0001523  C0000262  -1.000000000000e+00
    X0001523  C0001697   1.000000000000e+00
    X0001523  C0001699   1.000000000000e+00
    X0001523  C0001700   1.000000000000e+00
    MARK      'MARKER'                 'INTEND'
    MARK      'MARKER'                 'INTORG'
    X0001524  C0000263  -1.000000000000e+00
    X0001524  C0001702   1.000000000000e+00
    MARK      'MARKER'                 'INTEND'
    MARK      'MARKER'                 'INTORG'
    X0001525  C0000264  -1.000000000000e+00
    X0001525  C0001707   1.000000000000e+00
    MARK      'MARKER'                 'INTEND'
    MARK      'MARKER'                 'INTORG'
    X0001526  C0000266  -1.000000000000e+00
    X0001526  C0001716   1.000000000000e+00
    X0001526  C0001718   1.000000000000e+00
    X0001526  C0001719   1.000000000000e+00
    MARK      'MARKER'                 'INTEND'
    MARK      'MARKER'                 'INTORG'
    X0001527  C0000275  -1.000000000000e+00
    X0001527  C0001755   1.000000000000e+00
    MARK      'MARKER'                 'INTEND'
    MARK      'MARKER'                 'INTORG'
    X0001528  C0000267  -1.000000000000e+00
    X0001528  C0001720   1.000000000000e+00
    X0001528  C0001722   1.000000000000e+00
    X0001528  C0001723   1.000000000000e+00
    MARK      'MARKER'                 'INTEND'
    MARK      'MARKER'                 'INTORG'
    X0001529  C0000268  -1.000000000000e+00
    X0001529  C0001724   1.000000000000e+00
    X0001529  C0001726   1.000000000000e+00
    X0001529  C0001727   1.000000000000e+00
    MARK      'MARKER'                 'INTEND'
    MARK      'MARKER'                 'INTORG'
    X0001530  C0000269  -1.000000000000e+00
    X0001530  C0001728   1.000000000000e+00
    X0001530  C0001730   1.000000000000e+00
    X0001530  C0001731   1.000000000000e+00
    MARK      'MARKER'                 'INTEND'
    MARK      'MARKER'                 'INTORG'
    X0001531  C0000270  -1.000000000000e+00
    X0001531  C0001732   1.000000000000e+00
    X0001531  C0001734   1.000000000000e+00
    X0001531  C0001735   1.000000000000e+00
    MARK      'MARKER'                 'INTEND'
    MARK      'MARKER'                 'INTORG'
    X0001532  C0000271  -1.000000000000e+00
    X0001532  C0001736   1.000000000000e+00
    X0001532  C0001738   1.000000000000e+00
    X0001532  C0001739   1.000000000000e+00
    MARK      'MARKER'                 'INTEND'
    MARK      'MARKER'                 'INTORG'
    X0001533  C0000272  -1.000000000000e+00
    X0001533  C0001740   1.000000000000e+00
    X0001533  C0001742   1.000000000000e+00
    X0001533  C0001743   1.000000000000e+00
    MARK      'MARKER'                 'INTEND'
    MARK      'MARKER'                 'INTORG'
    X0001534  C0000273  -1.000000000000e+00
    X0001534  C0001745   1.000000000000e+00
    MARK      'MARKER'                 'INTEND'
    MARK      'MARKER'                 'INTORG'
    X0001535  C0000274  -1.000000000000e+00
    X0001535  C0001750   1.000000000000e+00
    MARK      'MARKER'                 'INTEND'
    MARK      'MARKER'                 'INTORG'
    X0001536  C0000276  -1.000000000000e+00
    X0001536  C0001759   1.000000000000e+00
    X0001536  C0001761   1.000000000000e+00
    X0001536  C0001762   1.000000000000e+00
    MARK      'MARKER'                 'INTEND'
    MARK      'MARKER'                 'INTORG'
    X0001537  C0000285  -1.000000000000e+00
    X0001537  C0001798   1.000000000000e+00
    MARK      'MARKER'                 'INTEND'
    MARK      'MARKER'                 'INTORG'
    X0001538  C0000277  -1.000000000000e+00
    X0001538  C0001763   1.000000000000e+00
    X0001538  C0001765   1.000000000000e+00
    X0001538  C0001766   1.000000000000e+00
    MARK      'MARKER'                 'INTEND'
    MARK      'MARKER'                 'INTORG'
    X0001539  C0000278  -1.000000000000e+00
    X0001539  C0001767   1.000000000000e+00
    X0001539  C0001769   1.000000000000e+00
    X0001539  C0001770   1.000000000000e+00
    MARK      'MARKER'                 'INTEND'
    MARK      'MARKER'                 'INTORG'
    X0001540  C0000279  -1.000000000000e+00
    X0001540  C0001771   1.000000000000e+00
    X0001540  C0001773   1.000000000000e+00
    X0001540  C0001774   1.000000000000e+00
    MARK      'MARKER'                 'INTEND'
    MARK      'MARKER'                 'INTORG'
    X0001541  C0000280  -1.000000000000e+00
    X0001541  C0001775   1.000000000000e+00
    X0001541  C0001777   1.000000000000e+00
    X0001541  C0001778   1.000000000000e+00
    MARK      'MARKER'                 'INTEND'
    MARK      'MARKER'                 'INTORG'
    X0001542  C0000281  -1.000000000000e+00
    X0001542  C0001779   1.000000000000e+00
    X0001542  C0001781   1.000000000000e+00
    X0001542  C0001782   1.000000000000e+00
    MARK      'MARKER'                 'INTEND'
    MARK      'MARKER'                 'INTORG'
    X0001543  C0000282  -1.000000000000e+00
    X0001543  C0001783   1.000000000000e+00
    X0001543  C0001785   1.000000000000e+00
    X0001543  C0001786   1.000000000000e+00
    MARK      'MARKER'                 'INTEND'
    MARK      'MARKER'                 'INTORG'
    X0001544  C0000283  -1.000000000000e+00
    X0001544  C0001788   1.000000000000e+00
    MARK      'MARKER'                 'INTEND'
    MARK      'MARKER'                 'INTORG'
    X0001545  C0000284  -1.000000000000e+00
    X0001545  C0001793   1.000000000000e+00
    MARK      'MARKER'                 'INTEND'
    MARK      'MARKER'                 'INTORG'
    X0001546  C0000286  -1.000000000000e+00
    X0001546  C0001802   1.000000000000e+00
    X0001546  C0001804   1.000000000000e+00
    X0001546  C0001805   1.000000000000e+00
    MARK      'MARKER'                 'INTEND'
    MARK      'MARKER'                 'INTORG'
    X0001547  C0000295  -1.000000000000e+00
    X0001547  C0001841   1.000000000000e+00
    MARK      'MARKER'                 'INTEND'
    MARK      'MARKER'                 'INTORG'
    X0001548  C0000287  -1.000000000000e+00
    X0001548  C0001806   1.000000000000e+00
    X0001548  C0001808   1.000000000000e+00
    X0001548  C0001809   1.000000000000e+00
    MARK      'MARKER'                 'INTEND'
    MARK      'MARKER'                 'INTORG'
    X0001549  C0000288  -1.000000000000e+00
    X0001549  C0001810   1.000000000000e+00
    X0001549  C0001812   1.000000000000e+00
    X0001549  C0001813   1.000000000000e+00
    MARK      'MARKER'                 'INTEND'
    MARK      'MARKER'                 'INTORG'
    X0001550  C0000289  -1.000000000000e+00
    X0001550  C0001814   1.000000000000e+00
    X0001550  C0001816   1.000000000000e+00
    X0001550  C0001817   1.000000000000e+00
    MARK      'MARKER'                 'INTEND'
    MARK      'MARKER'                 'INTORG'
    X0001551  C0000290  -1.000000000000e+00
    X0001551  C0001818   1.000000000000e+00
    X0001551  C0001820   1.000000000000e+00
    X0001551  C0001821   1.000000000000e+00
    MARK      'MARKER'                 'INTEND'
    MARK      'MARKER'                 'INTORG'
    X0001552  C0000291  -1.000000000000e+00
    X0001552  C0001822   1.000000000000e+00
    X0001552  C0001824   1.000000000000e+00
    X0001552  C0001825   1.000000000000e+00
    MARK      'MARKER'                 'INTEND'
    MARK      'MARKER'                 'INTORG'
    X0001553  C0000292  -1.000000000000e+00
    X0001553  C0001826   1.000000000000e+00
    X0001553  C0001828   1.000000000000e+00
    X0001553  C0001829   1.000000000000e+00
    MARK      'MARKER'                 'INTEND'
    MARK      'MARKER'                 'INTORG'
    X0001554  C0000293  -1.000000000000e+00
    X0001554  C0001831   1.000000000000e+00
    MARK      'MARKER'                 'INTEND'
    MARK      'MARKER'                 'INTORG'
    X0001555  C0000294  -1.000000000000e+00
    X0001555  C0001836   1.000000000000e+00
    MARK      'MARKER'                 'INTEND'
    MARK      'MARKER'                 'INTORG'
    X0001556  C0000296  -1.000000000000e+00
    X0001556  C0001845   1.000000000000e+00
    X0001556  C0001847   1.000000000000e+00
    X0001556  C0001848   1.000000000000e+00
    MARK      'MARKER'                 'INTEND'
    MARK      'MARKER'                 'INTORG'
    X0001557  C0000305  -1.000000000000e+00
    X0001557  C0001884   1.000000000000e+00
    MARK      'MARKER'                 'INTEND'
    MARK      'MARKER'                 'INTORG'
    X0001558  C0000297  -1.000000000000e+00
    X0001558  C0001849   1.000000000000e+00
    X0001558  C0001851   1.000000000000e+00
    X0001558  C0001852   1.000000000000e+00
    MARK      'MARKER'                 'INTEND'
    MARK      'MARKER'                 'INTORG'
    X0001559  C0000298  -1.000000000000e+00
    X0001559  C0001853   1.000000000000e+00
    X0001559  C0001855   1.000000000000e+00
    X0001559  C0001856   1.000000000000e+00
    MARK      'MARKER'                 'INTEND'
    MARK      'MARKER'                 'INTORG'
    X0001560  C0000299  -1.000000000000e+00
    X0001560  C0001857   1.000000000000e+00
    X0001560  C0001859   1.000000000000e+00
    X0001560  C0001860   1.000000000000e+00
    MARK      'MARKER'                 'INTEND'
    MARK      'MARKER'                 'INTORG'
    X0001561  C0000300  -1.000000000000e+00
    X0001561  C0001861   1.000000000000e+00
    X0001561  C0001863   1.000000000000e+00
    X0001561  C0001864   1.000000000000e+00
    MARK      'MARKER'                 'INTEND'
    MARK      'MARKER'                 'INTORG'
    X0001562  C0000301  -1.000000000000e+00
    X0001562  C0001865   1.000000000000e+00
    X0001562  C0001867   1.000000000000e+00
    X0001562  C0001868   1.000000000000e+00
    MARK      'MARKER'                 'INTEND'
    MARK      'MARKER'                 'INTORG'
    X0001563  C0000302  -1.000000000000e+00
    X0001563  C0001869   1.000000000000e+00
    X0001563  C0001871   1.000000000000e+00
    X0001563  C0001872   1.000000000000e+00
    MARK      'MARKER'                 'INTEND'
    MARK      'MARKER'                 'INTORG'
    X0001564  C0000303  -1.000000000000e+00
    X0001564  C0001874   1.000000000000e+00
    MARK      'MARKER'                 'INTEND'
    MARK      'MARKER'                 'INTORG'
    X0001565  C0000304  -1.000000000000e+00
    X0001565  C0001879   1.000000000000e+00
    MARK      'MARKER'                 'INTEND'
    MARK      'MARKER'                 'INTORG'
    X0001566  C0000306  -1.000000000000e+00
    X0001566  C0001888   1.000000000000e+00
    X0001566  C0001890   1.000000000000e+00
    X0001566  C0001891   1.000000000000e+00
    MARK      'MARKER'                 'INTEND'
    MARK      'MARKER'                 'INTORG'
    X0001567  C0000315  -1.000000000000e+00
    X0001567  C0001927   1.000000000000e+00
    MARK      'MARKER'                 'INTEND'
    MARK      'MARKER'                 'INTORG'
    X0001568  C0000307  -1.000000000000e+00
    X0001568  C0001892   1.000000000000e+00
    X0001568  C0001894   1.000000000000e+00
    X0001568  C0001895   1.000000000000e+00
    MARK      'MARKER'                 'INTEND'
    MARK      'MARKER'                 'INTORG'
    X0001569  C0000308  -1.000000000000e+00
    X0001569  C0001896   1.000000000000e+00
    X0001569  C0001898   1.000000000000e+00
    X0001569  C0001899   1.000000000000e+00
    MARK      'MARKER'                 'INTEND'
    MARK      'MARKER'                 'INTORG'
    X0001570  C0000309  -1.000000000000e+00
    X0001570  C0001900   1.000000000000e+00
    X0001570  C0001902   1.000000000000e+00
    X0001570  C0001903   1.000000000000e+00
    MARK      'MARKER'                 'INTEND'
    MARK      'MARKER'                 'INTORG'
    X0001571  C0000310  -1.000000000000e+00
    X0001571  C0001904   1.000000000000e+00
    X0001571  C0001906   1.000000000000e+00
    X0001571  C0001907   1.000000000000e+00
    MARK      'MARKER'                 'INTEND'
    MARK      'MARKER'                 'INTORG'
    X0001572  C0000311  -1.000000000000e+00
    X0001572  C0001908   1.000000000000e+00
    X0001572  C0001910   1.000000000000e+00
    X0001572  C0001911   1.000000000000e+00
    MARK      'MARKER'                 'INTEND'
    MARK      'MARKER'                 'INTORG'
    X0001573  C0000312  -1.000000000000e+00
    X0001573  C0001912   1.000000000000e+00
    X0001573  C0001914   1.000000000000e+00
    X0001573  C0001915   1.000000000000e+00
    MARK      'MARKER'                 'INTEND'
    MARK      'MARKER'                 'INTORG'
    X0001574  C0000313  -1.000000000000e+00
    X0001574  C0001917   1.000000000000e+00
    MARK      'MARKER'                 'INTEND'
    MARK      'MARKER'                 'INTORG'
    X0001575  C0000314  -1.000000000000e+00
    X0001575  C0001922   1.000000000000e+00
    MARK      'MARKER'                 'INTEND'
    MARK      'MARKER'                 'INTORG'
    X0001576  C0000316  -1.000000000000e+00
    X0001576  C0001931   1.000000000000e+00
    X0001576  C0001933   1.000000000000e+00
    X0001576  C0001934   1.000000000000e+00
    MARK      'MARKER'                 'INTEND'
    MARK      'MARKER'                 'INTORG'
    X0001577  C0000325  -1.000000000000e+00
    X0001577  C0001970   1.000000000000e+00
    MARK      'MARKER'                 'INTEND'
    MARK      'MARKER'                 'INTORG'
    X0001578  C0000317  -1.000000000000e+00
    X0001578  C0001935   1.000000000000e+00
    X0001578  C0001937   1.000000000000e+00
    X0001578  C0001938   1.000000000000e+00
    MARK      'MARKER'                 'INTEND'
    MARK      'MARKER'                 'INTORG'
    X0001579  C0000318  -1.000000000000e+00
    X0001579  C0001939   1.000000000000e+00
    X0001579  C0001941   1.000000000000e+00
    X0001579  C0001942   1.000000000000e+00
    MARK      'MARKER'                 'INTEND'
    MARK      'MARKER'                 'INTORG'
    X0001580  C0000319  -1.000000000000e+00
    X0001580  C0001943   1.000000000000e+00
    X0001580  C0001945   1.000000000000e+00
    X0001580  C0001946   1.000000000000e+00
    MARK      'MARKER'                 'INTEND'
    MARK      'MARKER'                 'INTORG'
    X0001581  C0000320  -1.000000000000e+00
    X0001581  C0001947   1.000000000000e+00
    X0001581  C0001949   1.000000000000e+00
    X0001581  C0001950   1.000000000000e+00
    MARK      'MARKER'                 'INTEND'
    MARK      'MARKER'                 'INTORG'
    X0001582  C0000321  -1.000000000000e+00
    X0001582  C0001951   1.000000000000e+00
    X0001582  C0001953   1.000000000000e+00
    X0001582  C0001954   1.000000000000e+00
    MARK      'MARKER'                 'INTEND'
    MARK      'MARKER'                 'INTORG'
    X0001583  C0000322  -1.000000000000e+00
    X0001583  C0001955   1.000000000000e+00
    X0001583  C0001957   1.000000000000e+00
    X0001583  C0001958   1.000000000000e+00
    MARK      'MARKER'                 'INTEND'
    MARK      'MARKER'                 'INTORG'
    X0001584  C0000323  -1.000000000000e+00
    X0001584  C0001960   1.000000000000e+00
    MARK      'MARKER'                 'INTEND'
    MARK      'MARKER'                 'INTORG'
    X0001585  C0000324  -1.000000000000e+00
    X0001585  C0001965   1.000000000000e+00
    MARK      'MARKER'                 'INTEND'
    MARK      'MARKER'                 'INTORG'
    X0001586  C0000326  -1.000000000000e+00
    X0001586  C0001974   1.000000000000e+00
    X0001586  C0001976   1.000000000000e+00
    X0001586  C0001977   1.000000000000e+00
    MARK      'MARKER'                 'INTEND'
    MARK      'MARKER'                 'INTORG'
    X0001587  C0000335  -1.000000000000e+00
    X0001587  C0002013   1.000000000000e+00
    MARK      'MARKER'                 'INTEND'
    MARK      'MARKER'                 'INTORG'
    X0001588  C0000327  -1.000000000000e+00
    X0001588  C0001978   1.000000000000e+00
    X0001588  C0001980   1.000000000000e+00
    X0001588  C0001981   1.000000000000e+00
    MARK      'MARKER'                 'INTEND'
    MARK      'MARKER'                 'INTORG'
    X0001589  C0000328  -1.000000000000e+00
    X0001589  C0001982   1.000000000000e+00
    X0001589  C0001984   1.000000000000e+00
    X0001589  C0001985   1.000000000000e+00
    MARK      'MARKER'                 'INTEND'
    MARK      'MARKER'                 'INTORG'
    X0001590  C0000329  -1.000000000000e+00
    X0001590  C0001986   1.000000000000e+00
    X0001590  C0001988   1.000000000000e+00
    X0001590  C0001989   1.000000000000e+00
    MARK      'MARKER'                 'INTEND'
    MARK      'MARKER'                 'INTORG'
    X0001591  C0000330  -1.000000000000e+00
    X0001591  C0001990   1.000000000000e+00
    X0001591  C0001992   1.000000000000e+00
    X0001591  C0001993   1.000000000000e+00
    MARK      'MARKER'                 'INTEND'
    MARK      'MARKER'                 'INTORG'
    X0001592  C0000331  -1.000000000000e+00
    X0001592  C0001994   1.000000000000e+00
    X0001592  C0001996   1.000000000000e+00
    X0001592  C0001997   1.000000000000e+00
    MARK      'MARKER'                 'INTEND'
    MARK      'MARKER'                 'INTORG'
    X0001593  C0000332  -1.000000000000e+00
    X0001593  C0001998   1.000000000000e+00
    X0001593  C0002000   1.000000000000e+00
    X0001593  C0002001   1.000000000000e+00
    MARK      'MARKER'                 'INTEND'
    MARK      'MARKER'                 'INTORG'
    X0001594  C0000333  -1.000000000000e+00
    X0001594  C0002003   1.000000000000e+00
    MARK      'MARKER'                 'INTEND'
    MARK      'MARKER'                 'INTORG'
    X0001595  C0000334  -1.000000000000e+00
    X0001595  C0002008   1.000000000000e+00
    MARK      'MARKER'                 'INTEND'
    MARK      'MARKER'                 'INTORG'
    X0001596  C0000336  -1.000000000000e+00
    X0001596  C0002017   1.000000000000e+00
    X0001596  C0002019   1.000000000000e+00
    X0001596  C0002020   1.000000000000e+00
    MARK      'MARKER'                 'INTEND'
    MARK      'MARKER'                 'INTORG'
    X0001597  C0000345  -1.000000000000e+00
    X0001597  C0002056   1.000000000000e+00
    MARK      'MARKER'                 'INTEND'
    MARK      'MARKER'                 'INTORG'
    X0001598  C0000337  -1.000000000000e+00
    X0001598  C0002021   1.000000000000e+00
    X0001598  C0002023   1.000000000000e+00
    X0001598  C0002024   1.000000000000e+00
    MARK      'MARKER'                 'INTEND'
    MARK      'MARKER'                 'INTORG'
    X0001599  C0000338  -1.000000000000e+00
    X0001599  C0002025   1.000000000000e+00
    X0001599  C0002027   1.000000000000e+00
    X0001599  C0002028   1.000000000000e+00
    MARK      'MARKER'                 'INTEND'
    MARK      'MARKER'                 'INTORG'
    X0001600  C0000339  -1.000000000000e+00
    X0001600  C0002029   1.000000000000e+00
    X0001600  C0002031   1.000000000000e+00
    X0001600  C0002032   1.000000000000e+00
    MARK      'MARKER'                 'INTEND'
    MARK      'MARKER'                 'INTORG'
    X0001601  C0000340  -1.000000000000e+00
    X0001601  C0002033   1.000000000000e+00
    X0001601  C0002035   1.000000000000e+00
    X0001601  C0002036   1.000000000000e+00
    MARK      'MARKER'                 'INTEND'
    MARK      'MARKER'                 'INTORG'
    X0001602  C0000341  -1.000000000000e+00
    X0001602  C0002037   1.000000000000e+00
    X0001602  C0002039   1.000000000000e+00
    X0001602  C0002040   1.000000000000e+00
    MARK      'MARKER'                 'INTEND'
    MARK      'MARKER'                 'INTORG'
    X0001603  C0000342  -1.000000000000e+00
    X0001603  C0002041   1.000000000000e+00
    X0001603  C0002043   1.000000000000e+00
    X0001603  C0002044   1.000000000000e+00
    MARK      'MARKER'                 'INTEND'
    MARK      'MARKER'                 'INTORG'
    X0001604  C0000343  -1.000000000000e+00
    X0001604  C0002046   1.000000000000e+00
    MARK      'MARKER'                 'INTEND'
    MARK      'MARKER'                 'INTORG'
    X0001605  C0000344  -1.000000000000e+00
    X0001605  C0002051   1.000000000000e+00
    MARK      'MARKER'                 'INTEND'
    MARK      'MARKER'                 'INTORG'
    X0001606  C0000346  -1.000000000000e+00
    X0001606  C0002060   1.000000000000e+00
    X0001606  C0002062   1.000000000000e+00
    X0001606  C0002063   1.000000000000e+00
    MARK      'MARKER'                 'INTEND'
    MARK      'MARKER'                 'INTORG'
    X0001607  C0000355  -1.000000000000e+00
    X0001607  C0002099   1.000000000000e+00
    MARK      'MARKER'                 'INTEND'
    MARK      'MARKER'                 'INTORG'
    X0001608  C0000347  -1.000000000000e+00
    X0001608  C0002064   1.000000000000e+00
    X0001608  C0002066   1.000000000000e+00
    X0001608  C0002067   1.000000000000e+00
    MARK      'MARKER'                 'INTEND'
    MARK      'MARKER'                 'INTORG'
    X0001609  C0000348  -1.000000000000e+00
    X0001609  C0002068   1.000000000000e+00
    X0001609  C0002070   1.000000000000e+00
    X0001609  C0002071   1.000000000000e+00
    MARK      'MARKER'                 'INTEND'
    MARK      'MARKER'                 'INTORG'
    X0001610  C0000349  -1.000000000000e+00
    X0001610  C0002072   1.000000000000e+00
    X0001610  C0002074   1.000000000000e+00
    X0001610  C0002075   1.000000000000e+00
    MARK      'MARKER'                 'INTEND'
    MARK      'MARKER'                 'INTORG'
    X0001611  C0000350  -1.000000000000e+00
    X0001611  C0002076   1.000000000000e+00
    X0001611  C0002078   1.000000000000e+00
    X0001611  C0002079   1.000000000000e+00
    MARK      'MARKER'                 'INTEND'
    MARK      'MARKER'                 'INTORG'
    X0001612  C0000351  -1.000000000000e+00
    X0001612  C0002080   1.000000000000e+00
    X0001612  C0002082   1.000000000000e+00
    X0001612  C0002083   1.000000000000e+00
    MARK      'MARKER'                 'INTEND'
    MARK      'MARKER'                 'INTORG'
    X0001613  C0000352  -1.000000000000e+00
    X0001613  C0002084   1.000000000000e+00
    X0001613  C0002086   1.000000000000e+00
    X0001613  C0002087   1.000000000000e+00
    MARK      'MARKER'                 'INTEND'
    MARK      'MARKER'                 'INTORG'
    X0001614  C0000353  -1.000000000000e+00
    X0001614  C0002089   1.000000000000e+00
    MARK      'MARKER'                 'INTEND'
    MARK      'MARKER'                 'INTORG'
    X0001615  C0000354  -1.000000000000e+00
    X0001615  C0002094   1.000000000000e+00
    MARK      'MARKER'                 'INTEND'
    MARK      'MARKER'                 'INTORG'
    X0001616  C0000356  -1.000000000000e+00
    X0001616  C0002103   1.000000000000e+00
    X0001616  C0002105   1.000000000000e+00
    X0001616  C0002106   1.000000000000e+00
    MARK      'MARKER'                 'INTEND'
    MARK      'MARKER'                 'INTORG'
    X0001617  C0000365  -1.000000000000e+00
    X0001617  C0002142   1.000000000000e+00
    MARK      'MARKER'                 'INTEND'
    MARK      'MARKER'                 'INTORG'
    X0001618  C0000357  -1.000000000000e+00
    X0001618  C0002107   1.000000000000e+00
    X0001618  C0002109   1.000000000000e+00
    X0001618  C0002110   1.000000000000e+00
    MARK      'MARKER'                 'INTEND'
    MARK      'MARKER'                 'INTORG'
    X0001619  C0000358  -1.000000000000e+00
    X0001619  C0002111   1.000000000000e+00
    X0001619  C0002113   1.000000000000e+00
    X0001619  C0002114   1.000000000000e+00
    MARK      'MARKER'                 'INTEND'
    MARK      'MARKER'                 'INTORG'
    X0001620  C0000359  -1.000000000000e+00
    X0001620  C0002115   1.000000000000e+00
    X0001620  C0002117   1.000000000000e+00
    X0001620  C0002118   1.000000000000e+00
    MARK      'MARKER'                 'INTEND'
    MARK      'MARKER'                 'INTORG'
    X0001621  C0000360  -1.000000000000e+00
    X0001621  C0002119   1.000000000000e+00
    X0001621  C0002121   1.000000000000e+00
    X0001621  C0002122   1.000000000000e+00
    MARK      'MARKER'                 'INTEND'
    MARK      'MARKER'                 'INTORG'
    X0001622  C0000361  -1.000000000000e+00
    X0001622  C0002123   1.000000000000e+00
    X0001622  C0002125   1.000000000000e+00
    X0001622  C0002126   1.000000000000e+00
    MARK      'MARKER'                 'INTEND'
    MARK      'MARKER'                 'INTORG'
    X0001623  C0000362  -1.000000000000e+00
    X0001623  C0002127   1.000000000000e+00
    X0001623  C0002129   1.000000000000e+00
    X0001623  C0002130   1.000000000000e+00
    MARK      'MARKER'                 'INTEND'
    MARK      'MARKER'                 'INTORG'
    X0001624  C0000363  -1.000000000000e+00
    X0001624  C0002132   1.000000000000e+00
    MARK      'MARKER'                 'INTEND'
    MARK      'MARKER'                 'INTORG'
    X0001625  C0000364  -1.000000000000e+00
    X0001625  C0002137   1.000000000000e+00
    MARK      'MARKER'                 'INTEND'
    X0001626  C0000438   1.000000000000e+00
    X0001626  OBJ        5.000000000000e-01
    X0001627  C0000474   1.000000000000e+00
    X0001627  OBJ        5.000000000000e-01
    X0001628  C0000442   1.000000000000e+00
    X0001628  OBJ        5.000000000000e-01
    X0001629  C0000446   1.000000000000e+00
    X0001629  OBJ        5.000000000000e-01
    X0001630  C0000450   1.000000000000e+00
    X0001630  OBJ        5.000000000000e-01
    X0001631  C0000454   1.000000000000e+00
    X0001631  OBJ        5.000000000000e-01
    X0001632  C0000458   1.000000000000e+00
    X0001632  OBJ        5.000000000000e-01
    X0001633  C0000462   1.000000000000e+00
    X0001633  OBJ        5.000000000000e-01
    X0001634  C0000466   1.000000000000e+00
    X0001634  OBJ        5.000000000000e-01
    X0001635  C0000470   1.000000000000e+00
    X0001635  OBJ        5.000000000000e-01
    X0001636  C0000478   1.000000000000e+00
    X0001636  OBJ        5.000000000000e-01
    X0001637  C0000514   1.000000000000e+00
    X0001637  OBJ        5.000000000000e-01
    X0001638  C0000482   1.000000000000e+00
    X0001638  OBJ        5.000000000000e-01
    X0001639  C0000486   1.000000000000e+00
    X0001639  OBJ        5.000000000000e-01
    X0001640  C0000490   1.000000000000e+00
    X0001640  OBJ        5.000000000000e-01
    X0001641  C0000494   1.000000000000e+00
    X0001641  OBJ        5.000000000000e-01
    X0001642  C0000498   1.000000000000e+00
    X0001642  OBJ        5.000000000000e-01
    X0001643  C0000502   1.000000000000e+00
    X0001643  OBJ        5.000000000000e-01
    X0001644  C0000506   1.000000000000e+00
    X0001644  OBJ        5.000000000000e-01
    X0001645  C0000510   1.000000000000e+00
    X0001645  OBJ        5.000000000000e-01
    X0001646  C0000518   1.000000000000e+00
    X0001646  OBJ        5.000000000000e-01
    X0001647  C0000554   1.000000000000e+00
    X0001647  OBJ        5.000000000000e-01
    X0001648  C0000522   1.000000000000e+00
    X0001648  OBJ        5.000000000000e-01
    X0001649  C0000526   1.000000000000e+00
    X0001649  OBJ        5.000000000000e-01
    X0001650  C0000530   1.000000000000e+00
    X0001650  OBJ        5.000000000000e-01
    X0001651  C0000534   1.000000000000e+00
    X0001651  OBJ        5.000000000000e-01
    X0001652  C0000538   1.000000000000e+00
    X0001652  OBJ        5.000000000000e-01
    X0001653  C0000542   1.000000000000e+00
    X0001653  OBJ        5.000000000000e-01
    X0001654  C0000546   1.000000000000e+00
    X0001654  OBJ        5.000000000000e-01
    X0001655  C0000550   1.000000000000e+00
    X0001655  OBJ        5.000000000000e-01
    X0001656  C0000558   1.000000000000e+00
    X0001656  OBJ        5.000000000000e-01
    X0001657  C0000594   1.000000000000e+00
    X0001657  OBJ        5.000000000000e-01
    X0001658  C0000562   1.000000000000e+00
    X0001658  OBJ        5.000000000000e-01
    X0001659  C0000566   1.000000000000e+00
    X0001659  OBJ        5.000000000000e-01
    X0001660  C0000570   1.000000000000e+00
    X0001660  OBJ        5.000000000000e-01
    X0001661  C0000574   1.000000000000e+00
    X0001661  OBJ        5.000000000000e-01
    X0001662  C0000578   1.000000000000e+00
    X0001662  OBJ        5.000000000000e-01
    X0001663  C0000582   1.000000000000e+00
    X0001663  OBJ        5.000000000000e-01
    X0001664  C0000586   1.000000000000e+00
    X0001664  OBJ        5.000000000000e-01
    X0001665  C0000590   1.000000000000e+00
    X0001665  OBJ        5.000000000000e-01
    X0001666  C0000598   1.000000000000e+00
    X0001666  OBJ        5.000000000000e-01
    X0001667  C0000634   1.000000000000e+00
    X0001667  OBJ        5.000000000000e-01
    X0001668  C0000602   1.000000000000e+00
    X0001668  OBJ        5.000000000000e-01
    X0001669  C0000606   1.000000000000e+00
    X0001669  OBJ        5.000000000000e-01
    X0001670  C0000610   1.000000000000e+00
    X0001670  OBJ        5.000000000000e-01
    X0001671  C0000614   1.000000000000e+00
    X0001671  OBJ        5.000000000000e-01
    X0001672  C0000618   1.000000000000e+00
    X0001672  OBJ        5.000000000000e-01
    X0001673  C0000622   1.000000000000e+00
    X0001673  OBJ        5.000000000000e-01
    X0001674  C0000626   1.000000000000e+00
    X0001674  OBJ        5.000000000000e-01
    X0001675  C0000630   1.000000000000e+00
    X0001675  OBJ        5.000000000000e-01
    X0001676  C0000638   1.000000000000e+00
    X0001676  OBJ        5.000000000000e-01
    X0001677  C0000674   1.000000000000e+00
    X0001677  OBJ        5.000000000000e-01
    X0001678  C0000642   1.000000000000e+00
    X0001678  OBJ        5.000000000000e-01
    X0001679  C0000646   1.000000000000e+00
    X0001679  OBJ        5.000000000000e-01
    X0001680  C0000650   1.000000000000e+00
    X0001680  OBJ        5.000000000000e-01
    X0001681  C0000654   1.000000000000e+00
    X0001681  OBJ        5.000000000000e-01
    X0001682  C0000658   1.000000000000e+00
    X0001682  OBJ        5.000000000000e-01
    X0001683  C0000662   1.000000000000e+00
    X0001683  OBJ        5.000000000000e-01
    X0001684  C0000666   1.000000000000e+00
    X0001684  OBJ        5.000000000000e-01
    X0001685  C0000670   1.000000000000e+00
    X0001685  OBJ        5.000000000000e-01
    MARK      'MARKER'                 'INTORG'
    X0001686  C0002146   1.000000000000e+00
    MARK      'MARKER'                 'INTEND'
    MARK      'MARKER'                 'INTORG'
    X0001687  C0002155   1.000000000000e+00
    MARK      'MARKER'                 'INTEND'
    MARK      'MARKER'                 'INTORG'
    X0001688  C0002147   1.000000000000e+00
    MARK      'MARKER'                 'INTEND'
    MARK      'MARKER'                 'INTORG'
    X0001689  C0002148   1.000000000000e+00
    MARK      'MARKER'                 'INTEND'
    MARK      'MARKER'                 'INTORG'
    X0001690  C0002149   1.000000000000e+00
    MARK      'MARKER'                 'INTEND'
    MARK      'MARKER'                 'INTORG'
    X0001691  C0002150   1.000000000000e+00
    MARK      'MARKER'                 'INTEND'
    MARK      'MARKER'                 'INTORG'
    X0001692  C0002151   1.000000000000e+00
    MARK      'MARKER'                 'INTEND'
    MARK      'MARKER'                 'INTORG'
    X0001693  C0002152   1.000000000000e+00
    MARK      'MARKER'                 'INTEND'
    MARK      'MARKER'                 'INTORG'
    X0001694  C0002153   1.000000000000e+00
    MARK      'MARKER'                 'INTEND'
    MARK      'MARKER'                 'INTORG'
    X0001695  C0002154   1.000000000000e+00
    MARK      'MARKER'                 'INTEND'
    MARK      'MARKER'                 'INTORG'
    X0001696  C0000857  -1.600000000000e+02
    X0001696  OBJ        1.800000000000e+02
    MARK      'MARKER'                 'INTEND'
    MARK      'MARKER'                 'INTORG'
    X0001697  C0000898   1.000000000000e+00
    X0001697  OBJ        1.800000000000e+02
    MARK      'MARKER'                 'INTEND'
    MARK      'MARKER'                 'INTORG'
    X0001698  C0000861  -1.600000000000e+02
    X0001698  OBJ        1.800000000000e+02
    MARK      'MARKER'                 'INTEND'
    MARK      'MARKER'                 'INTORG'
    X0001699  C0000865  -1.600000000000e+02
    X0001699  OBJ        1.800000000000e+02
    MARK      'MARKER'                 'INTEND'
    MARK      'MARKER'                 'INTORG'
    X0001700  C0000869  -1.600000000000e+02
    X0001700  OBJ        1.800000000000e+02
    MARK      'MARKER'                 'INTEND'
    MARK      'MARKER'                 'INTORG'
    X0001701  C0000873  -1.600000000000e+02
    X0001701  OBJ        1.800000000000e+02
    MARK      'MARKER'                 'INTEND'
    MARK      'MARKER'                 'INTORG'
    X0001702  C0000877  -1.600000000000e+02
    X0001702  OBJ        1.800000000000e+02
    MARK      'MARKER'                 'INTEND'
    MARK      'MARKER'                 'INTORG'
    X0001703  C0000881  -1.600000000000e+02
    X0001703  OBJ        1.800000000000e+02
    MARK      'MARKER'                 'INTEND'
    MARK      'MARKER'                 'INTORG'
    X0001704  C0000888   1.000000000000e+00
    X0001704  OBJ        1.800000000000e+02
    MARK      'MARKER'                 'INTEND'
    MARK      'MARKER'                 'INTORG'
    X0001705  C0000893   1.000000000000e+00
    X0001705  OBJ        1.800000000000e+02
    MARK      'MARKER'                 'INTEND'
    MARK      'MARKER'                 'INTORG'
    X0001706  C0000900  -1.600000000000e+02
    X0001706  OBJ        4.200000000000e+02
    MARK      'MARKER'                 'INTEND'
    MARK      'MARKER'                 'INTORG'
    X0001707  C0000941   1.000000000000e+00
    X0001707  OBJ        4.200000000000e+02
    MARK      'MARKER'                 'INTEND'
    MARK      'MARKER'                 'INTORG'
    X0001708  C0000904  -1.600000000000e+02
    X0001708  OBJ        4.200000000000e+02
    MARK      'MARKER'                 'INTEND'
    MARK      'MARKER'                 'INTORG'
    X0001709  C0000908  -1.600000000000e+02
    X0001709  OBJ        4.200000000000e+02
    MARK      'MARKER'                 'INTEND'
    MARK      'MARKER'                 'INTORG'
    X0001710  C0000912  -1.600000000000e+02
    X0001710  OBJ        4.200000000000e+02
    MARK      'MARKER'                 'INTEND'
    MARK      'MARKER'                 'INTORG'
    X0001711  C0000916  -1.600000000000e+02
    X0001711  OBJ        4.200000000000e+02
    MARK      'MARKER'                 'INTEND'
    MARK      'MARKER'                 'INTORG'
    X0001712  C0000920  -1.600000000000e+02
    X0001712  OBJ        4.200000000000e+02
    MARK      'MARKER'                 'INTEND'
    MARK      'MARKER'                 'INTORG'
    X0001713  C0000924  -1.600000000000e+02
    X0001713  OBJ        4.200000000000e+02
    MARK      'MARKER'                 'INTEND'
    MARK      'MARKER'                 'INTORG'
    X0001714  C0000931   1.000000000000e+00
    X0001714  OBJ        4.200000000000e+02
    MARK      'MARKER'                 'INTEND'
    MARK      'MARKER'                 'INTORG'
    X0001715  C0000936   1.000000000000e+00
    X0001715  OBJ        4.200000000000e+02
    MARK      'MARKER'                 'INTEND'
    MARK      'MARKER'                 'INTORG'
    X0001716  C0000943  -1.600000000000e+02
    X0001716  OBJ        7.200000000000e+02
    MARK      'MARKER'                 'INTEND'
    MARK      'MARKER'                 'INTORG'
    X0001717  C0000984   1.000000000000e+00
    X0001717  OBJ        7.200000000000e+02
    MARK      'MARKER'                 'INTEND'
    MARK      'MARKER'                 'INTORG'
    X0001718  C0000947  -1.600000000000e+02
    X0001718  OBJ        7.200000000000e+02
    MARK      'MARKER'                 'INTEND'
    MARK      'MARKER'                 'INTORG'
    X0001719  C0000951  -1.600000000000e+02
    X0001719  OBJ        7.200000000000e+02
    MARK      'MARKER'                 'INTEND'
    MARK      'MARKER'                 'INTORG'
    X0001720  C0000955  -1.600000000000e+02
    X0001720  OBJ        7.200000000000e+02
    MARK      'MARKER'                 'INTEND'
    MARK      'MARKER'                 'INTORG'
    X0001721  C0000959  -1.600000000000e+02
    X0001721  OBJ        7.200000000000e+02
    MARK      'MARKER'                 'INTEND'
    MARK      'MARKER'                 'INTORG'
    X0001722  C0000963  -1.600000000000e+02
    X0001722  OBJ        7.200000000000e+02
    MARK      'MARKER'                 'INTEND'
    MARK      'MARKER'                 'INTORG'
    X0001723  C0000967  -1.600000000000e+02
    X0001723  OBJ        7.200000000000e+02
    MARK      'MARKER'                 'INTEND'
    MARK      'MARKER'                 'INTORG'
    X0001724  C0000974   1.000000000000e+00
    X0001724  OBJ        7.200000000000e+02
    MARK      'MARKER'                 'INTEND'
    MARK      'MARKER'                 'INTORG'
    X0001725  C0000979   1.000000000000e+00
    X0001725  OBJ        7.200000000000e+02
    MARK      'MARKER'                 'INTEND'
    MARK      'MARKER'                 'INTORG'
    X0001726  C0000986  -1.600000000000e+02
    X0001726  OBJ        9.600000000000e+02
    MARK      'MARKER'                 'INTEND'
    MARK      'MARKER'                 'INTORG'
    X0001727  C0001027   1.000000000000e+00
    X0001727  OBJ        9.600000000000e+02
    MARK      'MARKER'                 'INTEND'
    MARK      'MARKER'                 'INTORG'
    X0001728  C0000990  -1.600000000000e+02
    X0001728  OBJ        9.600000000000e+02
    MARK      'MARKER'                 'INTEND'
    MARK      'MARKER'                 'INTORG'
    X0001729  C0000994  -1.600000000000e+02
    X0001729  OBJ        9.600000000000e+02
    MARK      'MARKER'                 'INTEND'
    MARK      'MARKER'                 'INTORG'
    X0001730  C0000998  -1.600000000000e+02
    X0001730  OBJ        9.600000000000e+02
    MARK      'MARKER'                 'INTEND'
    MARK      'MARKER'                 'INTORG'
    X0001731  C0001002  -1.600000000000e+02
    X0001731  OBJ        9.600000000000e+02
    MARK      'MARKER'                 'INTEND'
    MARK      'MARKER'                 'INTORG'
    X0001732  C0001006  -1.600000000000e+02
    X0001732  OBJ        9.600000000000e+02
    MARK      'MARKER'                 'INTEND'
    MARK      'MARKER'                 'INTORG'
    X0001733  C0001010  -1.600000000000e+02
    X0001733  OBJ        9.600000000000e+02
    MARK      'MARKER'                 'INTEND'
    MARK      'MARKER'                 'INTORG'
    X0001734  C0001017   1.000000000000e+00
    X0001734  OBJ        9.600000000000e+02
    MARK      'MARKER'                 'INTEND'
    MARK      'MARKER'                 'INTORG'
    X0001735  C0001022   1.000000000000e+00
    X0001735  OBJ        9.600000000000e+02
    MARK      'MARKER'                 'INTEND'
    MARK      'MARKER'                 'INTORG'
    X0001736  C0001029  -1.600000000000e+02
    X0001736  OBJ        1.080000000000e+03
    MARK      'MARKER'                 'INTEND'
    MARK      'MARKER'                 'INTORG'
    X0001737  C0001070   1.000000000000e+00
    X0001737  OBJ        1.080000000000e+03
    MARK      'MARKER'                 'INTEND'
    MARK      'MARKER'                 'INTORG'
    X0001738  C0001033  -1.600000000000e+02
    X0001738  OBJ        1.080000000000e+03
    MARK      'MARKER'                 'INTEND'
    MARK      'MARKER'                 'INTORG'
    X0001739  C0001037  -1.600000000000e+02
    X0001739  OBJ        1.080000000000e+03
    MARK      'MARKER'                 'INTEND'
    MARK      'MARKER'                 'INTORG'
    X0001740  C0001041  -1.600000000000e+02
    X0001740  OBJ        1.080000000000e+03
    MARK      'MARKER'                 'INTEND'
    MARK      'MARKER'                 'INTORG'
    X0001741  C0001045  -1.600000000000e+02
    X0001741  OBJ        1.080000000000e+03
    MARK      'MARKER'                 'INTEND'
    MARK      'MARKER'                 'INTORG'
    X0001742  C0001049  -1.600000000000e+02
    X0001742  OBJ        1.080000000000e+03
    MARK      'MARKER'                 'INTEND'
    MARK      'MARKER'                 'INTORG'
    X0001743  C0001053  -1.600000000000e+02
    X0001743  OBJ        1.080000000000e+03
    MARK      'MARKER'                 'INTEND'
    MARK      'MARKER'                 'INTORG'
    X0001744  C0001060   1.000000000000e+00
    X0001744  OBJ        1.080000000000e+03
    MARK      'MARKER'                 'INTEND'
    MARK      'MARKER'                 'INTORG'
    X0001745  C0001065   1.000000000000e+00
    X0001745  OBJ        1.080000000000e+03
    MARK      'MARKER'                 'INTEND'
    MARK      'MARKER'                 'INTORG'
    X0001746  C0001072  -1.600000000000e+02
    X0001746  OBJ        1.800000000000e+02
    MARK      'MARKER'                 'INTEND'
    MARK      'MARKER'                 'INTORG'
    X0001747  C0001113   1.000000000000e+00
    X0001747  OBJ        1.800000000000e+02
    MARK      'MARKER'                 'INTEND'
    MARK      'MARKER'                 'INTORG'
    X0001748  C0001076  -1.600000000000e+02
    X0001748  OBJ        1.800000000000e+02
    MARK      'MARKER'                 'INTEND'
    MARK      'MARKER'                 'INTORG'
    X0001749  C0001080  -1.600000000000e+02
    X0001749  OBJ        1.800000000000e+02
    MARK      'MARKER'                 'INTEND'
    MARK      'MARKER'                 'INTORG'
    X0001750  C0001084  -1.600000000000e+02
    X0001750  OBJ        1.800000000000e+02
    MARK      'MARKER'                 'INTEND'
    MARK      'MARKER'                 'INTORG'
    X0001751  C0001088  -1.600000000000e+02
    X0001751  OBJ        1.800000000000e+02
    MARK      'MARKER'                 'INTEND'
    MARK      'MARKER'                 'INTORG'
    X0001752  C0001092  -1.600000000000e+02
    X0001752  OBJ        1.800000000000e+02
    MARK      'MARKER'                 'INTEND'
    MARK      'MARKER'                 'INTORG'
    X0001753  C0001096  -1.600000000000e+02
    X0001753  OBJ        1.800000000000e+02
    MARK      'MARKER'                 'INTEND'
    MARK      'MARKER'                 'INTORG'
    X0001754  C0001103   1.000000000000e+00
    X0001754  OBJ        1.800000000000e+02
    MARK      'MARKER'                 'INTEND'
    MARK      'MARKER'                 'INTORG'
    X0001755  C0001108   1.000000000000e+00
    X0001755  OBJ        1.800000000000e+02
    MARK      'MARKER'                 'INTEND'
    MARK      'MARKER'                 'INTORG'
    X0001756  C0002156   1.000000000000e+00
    MARK      'MARKER'                 'INTEND'
    MARK      'MARKER'                 'INTORG'
    X0001757  C0002165   1.000000000000e+00
    MARK      'MARKER'                 'INTEND'
    MARK      'MARKER'                 'INTORG'
    X0001758  C0002157   1.000000000000e+00
    MARK      'MARKER'                 'INTEND'
    MARK      'MARKER'                 'INTORG'
    X0001759  C0002158   1.000000000000e+00
    MARK      'MARKER'                 'INTEND'
    MARK      'MARKER'                 'INTORG'
    X0001760  C0002159   1.000000000000e+00
    MARK      'MARKER'                 'INTEND'
    MARK      'MARKER'                 'INTORG'
    X0001761  C0002160   1.000000000000e+00
    MARK      'MARKER'                 'INTEND'
    MARK      'MARKER'                 'INTORG'
    X0001762  C0002161   1.000000000000e+00
    MARK      'MARKER'                 'INTEND'
    MARK      'MARKER'                 'INTORG'
    X0001763  C0002162   1.000000000000e+00
    MARK      'MARKER'                 'INTEND'
    MARK      'MARKER'                 'INTORG'
    X0001764  C0002163   1.000000000000e+00
    MARK      'MARKER'                 'INTEND'
    MARK      'MARKER'                 'INTORG'
    X0001765  C0002164   1.000000000000e+00
    MARK      'MARKER'                 'INTEND'
    MARK      'MARKER'                 'INTORG'
    X0001766  C0001115  -1.600000000000e+02
    X0001766  OBJ        2.400000000000e+02
    MARK      'MARKER'                 'INTEND'
    MARK      'MARKER'                 'INTORG'
    X0001767  C0001156   1.000000000000e+00
    X0001767  OBJ        2.400000000000e+02
    MARK      'MARKER'                 'INTEND'
    MARK      'MARKER'                 'INTORG'
    X0001768  C0001119  -1.600000000000e+02
    X0001768  OBJ        2.400000000000e+02
    MARK      'MARKER'                 'INTEND'
    MARK      'MARKER'                 'INTORG'
    X0001769  C0001123  -1.600000000000e+02
    X0001769  OBJ        2.400000000000e+02
    MARK      'MARKER'                 'INTEND'
    MARK      'MARKER'                 'INTORG'
    X0001770  C0001127  -1.600000000000e+02
    X0001770  OBJ        2.400000000000e+02
    MARK      'MARKER'                 'INTEND'
    MARK      'MARKER'                 'INTORG'
    X0001771  C0001131  -1.600000000000e+02
    X0001771  OBJ        2.400000000000e+02
    MARK      'MARKER'                 'INTEND'
    MARK      'MARKER'                 'INTORG'
    X0001772  C0001135  -1.600000000000e+02
    X0001772  OBJ        2.400000000000e+02
    MARK      'MARKER'                 'INTEND'
    MARK      'MARKER'                 'INTORG'
    X0001773  C0001139  -1.600000000000e+02
    X0001773  OBJ        2.400000000000e+02
    MARK      'MARKER'                 'INTEND'
    MARK      'MARKER'                 'INTORG'
    X0001774  C0001146   1.000000000000e+00
    X0001774  OBJ        2.400000000000e+02
    MARK      'MARKER'                 'INTEND'
    MARK      'MARKER'                 'INTORG'
    X0001775  C0001151   1.000000000000e+00
    X0001775  OBJ        2.400000000000e+02
    MARK      'MARKER'                 'INTEND'
    MARK      'MARKER'                 'INTORG'
    X0001776  C0001158  -1.600000000000e+02
    X0001776  OBJ        6.000000000000e+02
    MARK      'MARKER'                 'INTEND'
    MARK      'MARKER'                 'INTORG'
    X0001777  C0001199   1.000000000000e+00
    X0001777  OBJ        6.000000000000e+02
    MARK      'MARKER'                 'INTEND'
    MARK      'MARKER'                 'INTORG'
    X0001778  C0001162  -1.600000000000e+02
    X0001778  OBJ        6.000000000000e+02
    MARK      'MARKER'                 'INTEND'
    MARK      'MARKER'                 'INTORG'
    X0001779  C0001166  -1.600000000000e+02
    X0001779  OBJ        6.000000000000e+02
    MARK      'MARKER'                 'INTEND'
    MARK      'MARKER'                 'INTORG'
    X0001780  C0001170  -1.600000000000e+02
    X0001780  OBJ        6.000000000000e+02
    MARK      'MARKER'                 'INTEND'
    MARK      'MARKER'                 'INTORG'
    X0001781  C0001174  -1.600000000000e+02
    X0001781  OBJ        6.000000000000e+02
    MARK      'MARKER'                 'INTEND'
    MARK      'MARKER'                 'INTORG'
    X0001782  C0001178  -1.600000000000e+02
    X0001782  OBJ        6.000000000000e+02
    MARK      'MARKER'                 'INTEND'
    MARK      'MARKER'                 'INTORG'
    X0001783  C0001182  -1.600000000000e+02
    X0001783  OBJ        6.000000000000e+02
    MARK      'MARKER'                 'INTEND'
    MARK      'MARKER'                 'INTORG'
    X0001784  C0001189   1.000000000000e+00
    X0001784  OBJ        6.000000000000e+02
    MARK      'MARKER'                 'INTEND'
    MARK      'MARKER'                 'INTORG'
    X0001785  C0001194   1.000000000000e+00
    X0001785  OBJ        6.000000000000e+02
    MARK      'MARKER'                 'INTEND'
    MARK      'MARKER'                 'INTORG'
    X0001786  C0001201  -1.600000000000e+02
    X0001786  OBJ        9.000000000000e+02
    MARK      'MARKER'                 'INTEND'
    MARK      'MARKER'                 'INTORG'
    X0001787  C0001242   1.000000000000e+00
    X0001787  OBJ        9.000000000000e+02
    MARK      'MARKER'                 'INTEND'
    MARK      'MARKER'                 'INTORG'
    X0001788  C0001205  -1.600000000000e+02
    X0001788  OBJ        9.000000000000e+02
    MARK      'MARKER'                 'INTEND'
    MARK      'MARKER'                 'INTORG'
    X0001789  C0001209  -1.600000000000e+02
    X0001789  OBJ        9.000000000000e+02
    MARK      'MARKER'                 'INTEND'
    MARK      'MARKER'                 'INTORG'
    X0001790  C0001213  -1.600000000000e+02
    X0001790  OBJ        9.000000000000e+02
    MARK      'MARKER'                 'INTEND'
    MARK      'MARKER'                 'INTORG'
    X0001791  C0001217  -1.600000000000e+02
    X0001791  OBJ        9.000000000000e+02
    MARK      'MARKER'                 'INTEND'
    MARK      'MARKER'                 'INTORG'
    X0001792  C0001221  -1.600000000000e+02
    X0001792  OBJ        9.000000000000e+02
    MARK      'MARKER'                 'INTEND'
    MARK      'MARKER'                 'INTORG'
    X0001793  C0001225  -1.600000000000e+02
    X0001793  OBJ        9.000000000000e+02
    MARK      'MARKER'                 'INTEND'
    MARK      'MARKER'                 'INTORG'
    X0001794  C0001232   1.000000000000e+00
    X0001794  OBJ        9.000000000000e+02
    MARK      'MARKER'                 'INTEND'
    MARK      'MARKER'                 'INTORG'
    X0001795  C0001237   1.000000000000e+00
    X0001795  OBJ        9.000000000000e+02
    MARK      'MARKER'                 'INTEND'
    MARK      'MARKER'                 'INTORG'
    X0001796  C0001244  -1.600000000000e+02
    X0001796  OBJ        1.020000000000e+03
    MARK      'MARKER'                 'INTEND'
    MARK      'MARKER'                 'INTORG'
    X0001797  C0001285   1.000000000000e+00
    X0001797  OBJ        1.020000000000e+03
    MARK      'MARKER'                 'INTEND'
    MARK      'MARKER'                 'INTORG'
    X0001798  C0001248  -1.600000000000e+02
    X0001798  OBJ        1.020000000000e+03
    MARK      'MARKER'                 'INTEND'
    MARK      'MARKER'                 'INTORG'
    X0001799  C0001252  -1.600000000000e+02
    X0001799  OBJ        1.020000000000e+03
    MARK      'MARKER'                 'INTEND'
    MARK      'MARKER'                 'INTORG'
    X0001800  C0001256  -1.600000000000e+02
    X0001800  OBJ        1.020000000000e+03
    MARK      'MARKER'                 'INTEND'
    MARK      'MARKER'                 'INTORG'
    X0001801  C0001260  -1.600000000000e+02
    X0001801  OBJ        1.020000000000e+03
    MARK      'MARKER'                 'INTEND'
    MARK      'MARKER'                 'INTORG'
    X0001802  C0001264  -1.600000000000e+02
    X0001802  OBJ        1.020000000000e+03
    MARK      'MARKER'                 'INTEND'
    MARK      'MARKER'                 'INTORG'
    X0001803  C0001268  -1.600000000000e+02
    X0001803  OBJ        1.020000000000e+03
    MARK      'MARKER'                 'INTEND'
    MARK      'MARKER'                 'INTORG'
    X0001804  C0001275   1.000000000000e+00
    X0001804  OBJ        1.020000000000e+03
    MARK      'MARKER'                 'INTEND'
    MARK      'MARKER'                 'INTORG'
    X0001805  C0001280   1.000000000000e+00
    X0001805  OBJ        1.020000000000e+03
    MARK      'MARKER'                 'INTEND'
    MARK      'MARKER'                 'INTORG'
    X0001806  C0001287  -1.600000000000e+02
    X0001806  OBJ        4.200000000000e+02
    MARK      'MARKER'                 'INTEND'
    MARK      'MARKER'                 'INTORG'
    X0001807  C0001328   1.000000000000e+00
    X0001807  OBJ        4.200000000000e+02
    MARK      'MARKER'                 'INTEND'
    MARK      'MARKER'                 'INTORG'
    X0001808  C0001291  -1.600000000000e+02
    X0001808  OBJ        4.200000000000e+02
    MARK      'MARKER'                 'INTEND'
    MARK      'MARKER'                 'INTORG'
    X0001809  C0001295  -1.600000000000e+02
    X0001809  OBJ        4.200000000000e+02
    MARK      'MARKER'                 'INTEND'
    MARK      'MARKER'                 'INTORG'
    X0001810  C0001299  -1.600000000000e+02
    X0001810  OBJ        4.200000000000e+02
    MARK      'MARKER'                 'INTEND'
    MARK      'MARKER'                 'INTORG'
    X0001811  C0001303  -1.600000000000e+02
    X0001811  OBJ        4.200000000000e+02
    MARK      'MARKER'                 'INTEND'
    MARK      'MARKER'                 'INTORG'
    X0001812  C0001307  -1.600000000000e+02
    X0001812  OBJ        4.200000000000e+02
    MARK      'MARKER'                 'INTEND'
    MARK      'MARKER'                 'INTORG'
    X0001813  C0001311  -1.600000000000e+02
    X0001813  OBJ        4.200000000000e+02
    MARK      'MARKER'                 'INTEND'
    MARK      'MARKER'                 'INTORG'
    X0001814  C0001318   1.000000000000e+00
    X0001814  OBJ        4.200000000000e+02
    MARK      'MARKER'                 'INTEND'
    MARK      'MARKER'                 'INTORG'
    X0001815  C0001323   1.000000000000e+00
    X0001815  OBJ        4.200000000000e+02
    MARK      'MARKER'                 'INTEND'
    MARK      'MARKER'                 'INTORG'
    X0001816  C0001330  -1.600000000000e+02
    X0001816  OBJ        2.400000000000e+02
    MARK      'MARKER'                 'INTEND'
    MARK      'MARKER'                 'INTORG'
    X0001817  C0001371   1.000000000000e+00
    X0001817  OBJ        2.400000000000e+02
    MARK      'MARKER'                 'INTEND'
    MARK      'MARKER'                 'INTORG'
    X0001818  C0001334  -1.600000000000e+02
    X0001818  OBJ        2.400000000000e+02
    MARK      'MARKER'                 'INTEND'
    MARK      'MARKER'                 'INTORG'
    X0001819  C0001338  -1.600000000000e+02
    X0001819  OBJ        2.400000000000e+02
    MARK      'MARKER'                 'INTEND'
    MARK      'MARKER'                 'INTORG'
    X0001820  C0001342  -1.600000000000e+02
    X0001820  OBJ        2.400000000000e+02
    MARK      'MARKER'                 'INTEND'
    MARK      'MARKER'                 'INTORG'
    X0001821  C0001346  -1.600000000000e+02
    X0001821  OBJ        2.400000000000e+02
    MARK      'MARKER'                 'INTEND'
    MARK      'MARKER'                 'INTORG'
    X0001822  C0001350  -1.600000000000e+02
    X0001822  OBJ        2.400000000000e+02
    MARK      'MARKER'                 'INTEND'
    MARK      'MARKER'                 'INTORG'
    X0001823  C0001354  -1.600000000000e+02
    X0001823  OBJ        2.400000000000e+02
    MARK      'MARKER'                 'INTEND'
    MARK      'MARKER'                 'INTORG'
    X0001824  C0001361   1.000000000000e+00
    X0001824  OBJ        2.400000000000e+02
    MARK      'MARKER'                 'INTEND'
    MARK      'MARKER'                 'INTORG'
    X0001825  C0001366   1.000000000000e+00
    X0001825  OBJ        2.400000000000e+02
    MARK      'MARKER'                 'INTEND'
    MARK      'MARKER'                 'INTORG'
    X0001826  C0002166   1.000000000000e+00
    MARK      'MARKER'                 'INTEND'
    MARK      'MARKER'                 'INTORG'
    X0001827  C0002175   1.000000000000e+00
    MARK      'MARKER'                 'INTEND'
    MARK      'MARKER'                 'INTORG'
    X0001828  C0002167   1.000000000000e+00
    MARK      'MARKER'                 'INTEND'
    MARK      'MARKER'                 'INTORG'
    X0001829  C0002168   1.000000000000e+00
    MARK      'MARKER'                 'INTEND'
    MARK      'MARKER'                 'INTORG'
    X0001830  C0002169   1.000000000000e+00
    MARK      'MARKER'                 'INTEND'
    MARK      'MARKER'                 'INTORG'
    X0001831  C0002170   1.000000000000e+00
    MARK      'MARKER'                 'INTEND'
    MARK      'MARKER'                 'INTORG'
    X0001832  C0002171   1.000000000000e+00
    MARK      'MARKER'                 'INTEND'
    MARK      'MARKER'                 'INTORG'
    X0001833  C0002172   1.000000000000e+00
    MARK      'MARKER'                 'INTEND'
    MARK      'MARKER'                 'INTORG'
    X0001834  C0002173   1.000000000000e+00
    MARK      'MARKER'                 'INTEND'
    MARK      'MARKER'                 'INTORG'
    X0001835  C0002174   1.000000000000e+00
    MARK      'MARKER'                 'INTEND'
    MARK      'MARKER'                 'INTORG'
    X0001836  C0001373  -1.600000000000e+02
    X0001836  OBJ        3.600000000000e+02
    MARK      'MARKER'                 'INTEND'
    MARK      'MARKER'                 'INTORG'
    X0001837  C0001414   1.000000000000e+00
    X0001837  OBJ        3.600000000000e+02
    MARK      'MARKER'                 'INTEND'
    MARK      'MARKER'                 'INTORG'
    X0001838  C0001377  -1.600000000000e+02
    X0001838  OBJ        3.600000000000e+02
    MARK      'MARKER'                 'INTEND'
    MARK      'MARKER'                 'INTORG'
    X0001839  C0001381  -1.600000000000e+02
    X0001839  OBJ        3.600000000000e+02
    MARK      'MARKER'                 'INTEND'
    MARK      'MARKER'                 'INTORG'
    X0001840  C0001385  -1.600000000000e+02
    X0001840  OBJ        3.600000000000e+02
    MARK      'MARKER'                 'INTEND'
    MARK      'MARKER'                 'INTORG'
    X0001841  C0001389  -1.600000000000e+02
    X0001841  OBJ        3.600000000000e+02
    MARK      'MARKER'                 'INTEND'
    MARK      'MARKER'                 'INTORG'
    X0001842  C0001393  -1.600000000000e+02
    X0001842  OBJ        3.600000000000e+02
    MARK      'MARKER'                 'INTEND'
    MARK      'MARKER'                 'INTORG'
    X0001843  C0001397  -1.600000000000e+02
    X0001843  OBJ        3.600000000000e+02
    MARK      'MARKER'                 'INTEND'
    MARK      'MARKER'                 'INTORG'
    X0001844  C0001404   1.000000000000e+00
    X0001844  OBJ        3.600000000000e+02
    MARK      'MARKER'                 'INTEND'
    MARK      'MARKER'                 'INTORG'
    X0001845  C0001409   1.000000000000e+00
    X0001845  OBJ        3.600000000000e+02
    MARK      'MARKER'                 'INTEND'
    MARK      'MARKER'                 'INTORG'
    X0001846  C0001416  -1.600000000000e+02
    X0001846  OBJ        5.400000000000e+02
    MARK      'MARKER'                 'INTEND'
    MARK      'MARKER'                 'INTORG'
    X0001847  C0001457   1.000000000000e+00
    X0001847  OBJ        5.400000000000e+02
    MARK      'MARKER'                 'INTEND'
    MARK      'MARKER'                 'INTORG'
    X0001848  C0001420  -1.600000000000e+02
    X0001848  OBJ        5.400000000000e+02
    MARK      'MARKER'                 'INTEND'
    MARK      'MARKER'                 'INTORG'
    X0001849  C0001424  -1.600000000000e+02
    X0001849  OBJ        5.400000000000e+02
    MARK      'MARKER'                 'INTEND'
    MARK      'MARKER'                 'INTORG'
    X0001850  C0001428  -1.600000000000e+02
    X0001850  OBJ        5.400000000000e+02
    MARK      'MARKER'                 'INTEND'
    MARK      'MARKER'                 'INTORG'
    X0001851  C0001432  -1.600000000000e+02
    X0001851  OBJ        5.400000000000e+02
    MARK      'MARKER'                 'INTEND'
    MARK      'MARKER'                 'INTORG'
    X0001852  C0001436  -1.600000000000e+02
    X0001852  OBJ        5.400000000000e+02
    MARK      'MARKER'                 'INTEND'
    MARK      'MARKER'                 'INTORG'
    X0001853  C0001440  -1.600000000000e+02
    X0001853  OBJ        5.400000000000e+02
    MARK      'MARKER'                 'INTEND'
    MARK      'MARKER'                 'INTORG'
    X0001854  C0001447   1.000000000000e+00
    X0001854  OBJ        5.400000000000e+02
    MARK      'MARKER'                 'INTEND'
    MARK      'MARKER'                 'INTORG'
    X0001855  C0001452   1.000000000000e+00
    X0001855  OBJ        5.400000000000e+02
    MARK      'MARKER'                 'INTEND'
    MARK      'MARKER'                 'INTORG'
    X0001856  C0001459  -1.600000000000e+02
    X0001856  OBJ        6.000000000000e+02
    MARK      'MARKER'                 'INTEND'
    MARK      'MARKER'                 'INTORG'
    X0001857  C0001500   1.000000000000e+00
    X0001857  OBJ        6.000000000000e+02
    MARK      'MARKER'                 'INTEND'
    MARK      'MARKER'                 'INTORG'
    X0001858  C0001463  -1.600000000000e+02
    X0001858  OBJ        6.000000000000e+02
    MARK      'MARKER'                 'INTEND'
    MARK      'MARKER'                 'INTORG'
    X0001859  C0001467  -1.600000000000e+02
    X0001859  OBJ        6.000000000000e+02
    MARK      'MARKER'                 'INTEND'
    MARK      'MARKER'                 'INTORG'
    X0001860  C0001471  -1.600000000000e+02
    X0001860  OBJ        6.000000000000e+02
    MARK      'MARKER'                 'INTEND'
    MARK      'MARKER'                 'INTORG'
    X0001861  C0001475  -1.600000000000e+02
    X0001861  OBJ        6.000000000000e+02
    MARK      'MARKER'                 'INTEND'
    MARK      'MARKER'                 'INTORG'
    X0001862  C0001479  -1.600000000000e+02
    X0001862  OBJ        6.000000000000e+02
    MARK      'MARKER'                 'INTEND'
    MARK      'MARKER'                 'INTORG'
    X0001863  C0001483  -1.600000000000e+02
    X0001863  OBJ        6.000000000000e+02
    MARK      'MARKER'                 'INTEND'
    MARK      'MARKER'                 'INTORG'
    X0001864  C0001490   1.000000000000e+00
    X0001864  OBJ        6.000000000000e+02
    MARK      'MARKER'                 'INTEND'
    MARK      'MARKER'                 'INTORG'
    X0001865  C0001495   1.000000000000e+00
    X0001865  OBJ        6.000000000000e+02
    MARK      'MARKER'                 'INTEND'
    MARK      'MARKER'                 'INTORG'
    X0001866  C0001502  -1.600000000000e+02
    X0001866  OBJ        7.200000000000e+02
    MARK      'MARKER'                 'INTEND'
    MARK      'MARKER'                 'INTORG'
    X0001867  C0001543   1.000000000000e+00
    X0001867  OBJ        7.200000000000e+02
    MARK      'MARKER'                 'INTEND'
    MARK      'MARKER'                 'INTORG'
    X0001868  C0001506  -1.600000000000e+02
    X0001868  OBJ        7.200000000000e+02
    MARK      'MARKER'                 'INTEND'
    MARK      'MARKER'                 'INTORG'
    X0001869  C0001510  -1.600000000000e+02
    X0001869  OBJ        7.200000000000e+02
    MARK      'MARKER'                 'INTEND'
    MARK      'MARKER'                 'INTORG'
    X0001870  C0001514  -1.600000000000e+02
    X0001870  OBJ        7.200000000000e+02
    MARK      'MARKER'                 'INTEND'
    MARK      'MARKER'                 'INTORG'
    X0001871  C0001518  -1.600000000000e+02
    X0001871  OBJ        7.200000000000e+02
    MARK      'MARKER'                 'INTEND'
    MARK      'MARKER'                 'INTORG'
    X0001872  C0001522  -1.600000000000e+02
    X0001872  OBJ        7.200000000000e+02
    MARK      'MARKER'                 'INTEND'
    MARK      'MARKER'                 'INTORG'
    X0001873  C0001526  -1.600000000000e+02
    X0001873  OBJ        7.200000000000e+02
    MARK      'MARKER'                 'INTEND'
    MARK      'MARKER'                 'INTORG'
    X0001874  C0001533   1.000000000000e+00
    X0001874  OBJ        7.200000000000e+02
    MARK      'MARKER'                 'INTEND'
    MARK      'MARKER'                 'INTORG'
    X0001875  C0001538   1.000000000000e+00
    X0001875  OBJ        7.200000000000e+02
    MARK      'MARKER'                 'INTEND'
    MARK      'MARKER'                 'INTORG'
    X0001876  C0001545  -1.600000000000e+02
    X0001876  OBJ        6.000000000000e+02
    MARK      'MARKER'                 'INTEND'
    MARK      'MARKER'                 'INTORG'
    X0001877  C0001586   1.000000000000e+00
    X0001877  OBJ        6.000000000000e+02
    MARK      'MARKER'                 'INTEND'
    MARK      'MARKER'                 'INTORG'
    X0001878  C0001549  -1.600000000000e+02
    X0001878  OBJ        6.000000000000e+02
    MARK      'MARKER'                 'INTEND'
    MARK      'MARKER'                 'INTORG'
    X0001879  C0001553  -1.600000000000e+02
    X0001879  OBJ        6.000000000000e+02
    MARK      'MARKER'                 'INTEND'
    MARK      'MARKER'                 'INTORG'
    X0001880  C0001557  -1.600000000000e+02
    X0001880  OBJ        6.000000000000e+02
    MARK      'MARKER'                 'INTEND'
    MARK      'MARKER'                 'INTORG'
    X0001881  C0001561  -1.600000000000e+02
    X0001881  OBJ        6.000000000000e+02
    MARK      'MARKER'                 'INTEND'
    MARK      'MARKER'                 'INTORG'
    X0001882  C0001565  -1.600000000000e+02
    X0001882  OBJ        6.000000000000e+02
    MARK      'MARKER'                 'INTEND'
    MARK      'MARKER'                 'INTORG'
    X0001883  C0001569  -1.600000000000e+02
    X0001883  OBJ        6.000000000000e+02
    MARK      'MARKER'                 'INTEND'
    MARK      'MARKER'                 'INTORG'
    X0001884  C0001576   1.000000000000e+00
    X0001884  OBJ        6.000000000000e+02
    MARK      'MARKER'                 'INTEND'
    MARK      'MARKER'                 'INTORG'
    X0001885  C0001581   1.000000000000e+00
    X0001885  OBJ        6.000000000000e+02
    MARK      'MARKER'                 'INTEND'
    MARK      'MARKER'                 'INTORG'
    X0001886  C0001588  -1.600000000000e+02
    X0001886  OBJ        3.600000000000e+02
    MARK      'MARKER'                 'INTEND'
    MARK      'MARKER'                 'INTORG'
    X0001887  C0001629   1.000000000000e+00
    X0001887  OBJ        3.600000000000e+02
    MARK      'MARKER'                 'INTEND'
    MARK      'MARKER'                 'INTORG'
    X0001888  C0001592  -1.600000000000e+02
    X0001888  OBJ        3.600000000000e+02
    MARK      'MARKER'                 'INTEND'
    MARK      'MARKER'                 'INTORG'
    X0001889  C0001596  -1.600000000000e+02
    X0001889  OBJ        3.600000000000e+02
    MARK      'MARKER'                 'INTEND'
    MARK      'MARKER'                 'INTORG'
    X0001890  C0001600  -1.600000000000e+02
    X0001890  OBJ        3.600000000000e+02
    MARK      'MARKER'                 'INTEND'
    MARK      'MARKER'                 'INTORG'
    X0001891  C0001604  -1.600000000000e+02
    X0001891  OBJ        3.600000000000e+02
    MARK      'MARKER'                 'INTEND'
    MARK      'MARKER'                 'INTORG'
    X0001892  C0001608  -1.600000000000e+02
    X0001892  OBJ        3.600000000000e+02
    MARK      'MARKER'                 'INTEND'
    MARK      'MARKER'                 'INTORG'
    X0001893  C0001612  -1.600000000000e+02
    X0001893  OBJ        3.600000000000e+02
    MARK      'MARKER'                 'INTEND'
    MARK      'MARKER'                 'INTORG'
    X0001894  C0001619   1.000000000000e+00
    X0001894  OBJ        3.600000000000e+02
    MARK      'MARKER'                 'INTEND'
    MARK      'MARKER'                 'INTORG'
    X0001895  C0001624   1.000000000000e+00
    X0001895  OBJ        3.600000000000e+02
    MARK      'MARKER'                 'INTEND'
    MARK      'MARKER'                 'INTORG'
    X0001896  C0002176   1.000000000000e+00
    MARK      'MARKER'                 'INTEND'
    MARK      'MARKER'                 'INTORG'
    X0001897  C0002185   1.000000000000e+00
    MARK      'MARKER'                 'INTEND'
    MARK      'MARKER'                 'INTORG'
    X0001898  C0002177   1.000000000000e+00
    MARK      'MARKER'                 'INTEND'
    MARK      'MARKER'                 'INTORG'
    X0001899  C0002178   1.000000000000e+00
    MARK      'MARKER'                 'INTEND'
    MARK      'MARKER'                 'INTORG'
    X0001900  C0002179   1.000000000000e+00
    MARK      'MARKER'                 'INTEND'
    MARK      'MARKER'                 'INTORG'
    X0001901  C0002180   1.000000000000e+00
    MARK      'MARKER'                 'INTEND'
    MARK      'MARKER'                 'INTORG'
    X0001902  C0002181   1.000000000000e+00
    MARK      'MARKER'                 'INTEND'
    MARK      'MARKER'                 'INTORG'
    X0001903  C0002182   1.000000000000e+00
    MARK      'MARKER'                 'INTEND'
    MARK      'MARKER'                 'INTORG'
    X0001904  C0002183   1.000000000000e+00
    MARK      'MARKER'                 'INTEND'
    MARK      'MARKER'                 'INTORG'
    X0001905  C0002184   1.000000000000e+00
    MARK      'MARKER'                 'INTEND'
    MARK      'MARKER'                 'INTORG'
    X0001906  C0001631  -1.600000000000e+02
    X0001906  OBJ        3.000000000000e+02
    MARK      'MARKER'                 'INTEND'
    MARK      'MARKER'                 'INTORG'
    X0001907  C0001672   1.000000000000e+00
    X0001907  OBJ        3.000000000000e+02
    MARK      'MARKER'                 'INTEND'
    MARK      'MARKER'                 'INTORG'
    X0001908  C0001635  -1.600000000000e+02
    X0001908  OBJ        3.000000000000e+02
    MARK      'MARKER'                 'INTEND'
    MARK      'MARKER'                 'INTORG'
    X0001909  C0001639  -1.600000000000e+02
    X0001909  OBJ        3.000000000000e+02
    MARK      'MARKER'                 'INTEND'
    MARK      'MARKER'                 'INTORG'
    X0001910  C0001643  -1.600000000000e+02
    X0001910  OBJ        3.000000000000e+02
    MARK      'MARKER'                 'INTEND'
    MARK      'MARKER'                 'INTORG'
    X0001911  C0001647  -1.600000000000e+02
    X0001911  OBJ        3.000000000000e+02
    MARK      'MARKER'                 'INTEND'
    MARK      'MARKER'                 'INTORG'
    X0001912  C0001651  -1.600000000000e+02
    X0001912  OBJ        3.000000000000e+02
    MARK      'MARKER'                 'INTEND'
    MARK      'MARKER'                 'INTORG'
    X0001913  C0001655  -1.600000000000e+02
    X0001913  OBJ        3.000000000000e+02
    MARK      'MARKER'                 'INTEND'
    MARK      'MARKER'                 'INTORG'
    X0001914  C0001662   1.000000000000e+00
    X0001914  OBJ        3.000000000000e+02
    MARK      'MARKER'                 'INTEND'
    MARK      'MARKER'                 'INTORG'
    X0001915  C0001667   1.000000000000e+00
    X0001915  OBJ        3.000000000000e+02
    MARK      'MARKER'                 'INTEND'
    MARK      'MARKER'                 'INTORG'
    X0001916  C0001674  -1.600000000000e+02
    X0001916  OBJ        3.600000000000e+02
    MARK      'MARKER'                 'INTEND'
    MARK      'MARKER'                 'INTORG'
    X0001917  C0001715   1.000000000000e+00
    X0001917  OBJ        3.600000000000e+02
    MARK      'MARKER'                 'INTEND'
    MARK      'MARKER'                 'INTORG'
    X0001918  C0001678  -1.600000000000e+02
    X0001918  OBJ        3.600000000000e+02
    MARK      'MARKER'                 'INTEND'
    MARK      'MARKER'                 'INTORG'
    X0001919  C0001682  -1.600000000000e+02
    X0001919  OBJ        3.600000000000e+02
    MARK      'MARKER'                 'INTEND'
    MARK      'MARKER'                 'INTORG'
    X0001920  C0001686  -1.600000000000e+02
    X0001920  OBJ        3.600000000000e+02
    MARK      'MARKER'                 'INTEND'
    MARK      'MARKER'                 'INTORG'
    X0001921  C0001690  -1.600000000000e+02
    X0001921  OBJ        3.600000000000e+02
    MARK      'MARKER'                 'INTEND'
    MARK      'MARKER'                 'INTORG'
    X0001922  C0001694  -1.600000000000e+02
    X0001922  OBJ        3.600000000000e+02
    MARK      'MARKER'                 'INTEND'
    MARK      'MARKER'                 'INTORG'
    X0001923  C0001698  -1.600000000000e+02
    X0001923  OBJ        3.600000000000e+02
    MARK      'MARKER'                 'INTEND'
    MARK      'MARKER'                 'INTORG'
    X0001924  C0001705   1.000000000000e+00
    X0001924  OBJ        3.600000000000e+02
    MARK      'MARKER'                 'INTEND'
    MARK      'MARKER'                 'INTORG'
    X0001925  C0001710   1.000000000000e+00
    X0001925  OBJ        3.600000000000e+02
    MARK      'MARKER'                 'INTEND'
    MARK      'MARKER'                 'INTORG'
    X0001926  C0001717  -1.600000000000e+02
    X0001926  OBJ        9.600000000000e+02
    MARK      'MARKER'                 'INTEND'
    MARK      'MARKER'                 'INTORG'
    X0001927  C0001758   1.000000000000e+00
    X0001927  OBJ        9.600000000000e+02
    MARK      'MARKER'                 'INTEND'
    MARK      'MARKER'                 'INTORG'
    X0001928  C0001721  -1.600000000000e+02
    X0001928  OBJ        9.600000000000e+02
    MARK      'MARKER'                 'INTEND'
    MARK      'MARKER'                 'INTORG'
    X0001929  C0001725  -1.600000000000e+02
    X0001929  OBJ        9.600000000000e+02
    MARK      'MARKER'                 'INTEND'
    MARK      'MARKER'                 'INTORG'
    X0001930  C0001729  -1.600000000000e+02
    X0001930  OBJ        9.600000000000e+02
    MARK      'MARKER'                 'INTEND'
    MARK      'MARKER'                 'INTORG'
    X0001931  C0001733  -1.600000000000e+02
    X0001931  OBJ        9.600000000000e+02
    MARK      'MARKER'                 'INTEND'
    MARK      'MARKER'                 'INTORG'
    X0001932  C0001737  -1.600000000000e+02
    X0001932  OBJ        9.600000000000e+02
    MARK      'MARKER'                 'INTEND'
    MARK      'MARKER'                 'INTORG'
    X0001933  C0001741  -1.600000000000e+02
    X0001933  OBJ        9.600000000000e+02
    MARK      'MARKER'                 'INTEND'
    MARK      'MARKER'                 'INTORG'
    X0001934  C0001748   1.000000000000e+00
    X0001934  OBJ        9.600000000000e+02
    MARK      'MARKER'                 'INTEND'
    MARK      'MARKER'                 'INTORG'
    X0001935  C0001753   1.000000000000e+00
    X0001935  OBJ        9.600000000000e+02
    MARK      'MARKER'                 'INTEND'
    MARK      'MARKER'                 'INTORG'
    X0001936  C0001760  -1.600000000000e+02
    X0001936  OBJ        9.000000000000e+02
    MARK      'MARKER'                 'INTEND'
    MARK      'MARKER'                 'INTORG'
    X0001937  C0001801   1.000000000000e+00
    X0001937  OBJ        9.000000000000e+02
    MARK      'MARKER'                 'INTEND'
    MARK      'MARKER'                 'INTORG'
    X0001938  C0001764  -1.600000000000e+02
    X0001938  OBJ        9.000000000000e+02
    MARK      'MARKER'                 'INTEND'
    MARK      'MARKER'                 'INTORG'
    X0001939  C0001768  -1.600000000000e+02
    X0001939  OBJ        9.000000000000e+02
    MARK      'MARKER'                 'INTEND'
    MARK      'MARKER'                 'INTORG'
    X0001940  C0001772  -1.600000000000e+02
    X0001940  OBJ        9.000000000000e+02
    MARK      'MARKER'                 'INTEND'
    MARK      'MARKER'                 'INTORG'
    X0001941  C0001776  -1.600000000000e+02
    X0001941  OBJ        9.000000000000e+02
    MARK      'MARKER'                 'INTEND'
    MARK      'MARKER'                 'INTORG'
    X0001942  C0001780  -1.600000000000e+02
    X0001942  OBJ        9.000000000000e+02
    MARK      'MARKER'                 'INTEND'
    MARK      'MARKER'                 'INTORG'
    X0001943  C0001784  -1.600000000000e+02
    X0001943  OBJ        9.000000000000e+02
    MARK      'MARKER'                 'INTEND'
    MARK      'MARKER'                 'INTORG'
    X0001944  C0001791   1.000000000000e+00
    X0001944  OBJ        9.000000000000e+02
    MARK      'MARKER'                 'INTEND'
    MARK      'MARKER'                 'INTORG'
    X0001945  C0001796   1.000000000000e+00
    X0001945  OBJ        9.000000000000e+02
    MARK      'MARKER'                 'INTEND'
    MARK      'MARKER'                 'INTORG'
    X0001946  C0001803  -1.600000000000e+02
    X0001946  OBJ        5.400000000000e+02
    MARK      'MARKER'                 'INTEND'
    MARK      'MARKER'                 'INTORG'
    X0001947  C0001844   1.000000000000e+00
    X0001947  OBJ        5.400000000000e+02
    MARK      'MARKER'                 'INTEND'
    MARK      'MARKER'                 'INTORG'
    X0001948  C0001807  -1.600000000000e+02
    X0001948  OBJ        5.400000000000e+02
    MARK      'MARKER'                 'INTEND'
    MARK      'MARKER'                 'INTORG'
    X0001949  C0001811  -1.600000000000e+02
    X0001949  OBJ        5.400000000000e+02
    MARK      'MARKER'                 'INTEND'
    MARK      'MARKER'                 'INTORG'
    X0001950  C0001815  -1.600000000000e+02
    X0001950  OBJ        5.400000000000e+02
    MARK      'MARKER'                 'INTEND'
    MARK      'MARKER'                 'INTORG'
    X0001951  C0001819  -1.600000000000e+02
    X0001951  OBJ        5.400000000000e+02
    MARK      'MARKER'                 'INTEND'
    MARK      'MARKER'                 'INTORG'
    X0001952  C0001823  -1.600000000000e+02
    X0001952  OBJ        5.400000000000e+02
    MARK      'MARKER'                 'INTEND'
    MARK      'MARKER'                 'INTORG'
    X0001953  C0001827  -1.600000000000e+02
    X0001953  OBJ        5.400000000000e+02
    MARK      'MARKER'                 'INTEND'
    MARK      'MARKER'                 'INTORG'
    X0001954  C0001834   1.000000000000e+00
    X0001954  OBJ        5.400000000000e+02
    MARK      'MARKER'                 'INTEND'
    MARK      'MARKER'                 'INTORG'
    X0001955  C0001839   1.000000000000e+00
    X0001955  OBJ        5.400000000000e+02
    MARK      'MARKER'                 'INTEND'
    MARK      'MARKER'                 'INTORG'
    X0001956  C0001846  -1.600000000000e+02
    X0001956  OBJ        3.000000000000e+02
    MARK      'MARKER'                 'INTEND'
    MARK      'MARKER'                 'INTORG'
    X0001957  C0001887   1.000000000000e+00
    X0001957  OBJ        3.000000000000e+02
    MARK      'MARKER'                 'INTEND'
    MARK      'MARKER'                 'INTORG'
    X0001958  C0001850  -1.600000000000e+02
    X0001958  OBJ        3.000000000000e+02
    MARK      'MARKER'                 'INTEND'
    MARK      'MARKER'                 'INTORG'
    X0001959  C0001854  -1.600000000000e+02
    X0001959  OBJ        3.000000000000e+02
    MARK      'MARKER'                 'INTEND'
    MARK      'MARKER'                 'INTORG'
    X0001960  C0001858  -1.600000000000e+02
    X0001960  OBJ        3.000000000000e+02
    MARK      'MARKER'                 'INTEND'
    MARK      'MARKER'                 'INTORG'
    X0001961  C0001862  -1.600000000000e+02
    X0001961  OBJ        3.000000000000e+02
    MARK      'MARKER'                 'INTEND'
    MARK      'MARKER'                 'INTORG'
    X0001962  C0001866  -1.600000000000e+02
    X0001962  OBJ        3.000000000000e+02
    MARK      'MARKER'                 'INTEND'
    MARK      'MARKER'                 'INTORG'
    X0001963  C0001870  -1.600000000000e+02
    X0001963  OBJ        3.000000000000e+02
    MARK      'MARKER'                 'INTEND'
    MARK      'MARKER'                 'INTORG'
    X0001964  C0001877   1.000000000000e+00
    X0001964  OBJ        3.000000000000e+02
    MARK      'MARKER'                 'INTEND'
    MARK      'MARKER'                 'INTORG'
    X0001965  C0001882   1.000000000000e+00
    X0001965  OBJ        3.000000000000e+02
    MARK      'MARKER'                 'INTEND'
    MARK      'MARKER'                 'INTORG'
    X0001966  C0002186   1.000000000000e+00
    MARK      'MARKER'                 'INTEND'
    MARK      'MARKER'                 'INTORG'
    X0001967  C0002195   1.000000000000e+00
    MARK      'MARKER'                 'INTEND'
    MARK      'MARKER'                 'INTORG'
    X0001968  C0002187   1.000000000000e+00
    MARK      'MARKER'                 'INTEND'
    MARK      'MARKER'                 'INTORG'
    X0001969  C0002188   1.000000000000e+00
    MARK      'MARKER'                 'INTEND'
    MARK      'MARKER'                 'INTORG'
    X0001970  C0002189   1.000000000000e+00
    MARK      'MARKER'                 'INTEND'
    MARK      'MARKER'                 'INTORG'
    X0001971  C0002190   1.000000000000e+00
    MARK      'MARKER'                 'INTEND'
    MARK      'MARKER'                 'INTORG'
    X0001972  C0002191   1.000000000000e+00
    MARK      'MARKER'                 'INTEND'
    MARK      'MARKER'                 'INTORG'
    X0001973  C0002192   1.000000000000e+00
    MARK      'MARKER'                 'INTEND'
    MARK      'MARKER'                 'INTORG'
    X0001974  C0002193   1.000000000000e+00
    MARK      'MARKER'                 'INTEND'
    MARK      'MARKER'                 'INTORG'
    X0001975  C0002194   1.000000000000e+00
    MARK      'MARKER'                 'INTEND'
    MARK      'MARKER'                 'INTORG'
    X0001976  C0001889  -1.600000000000e+02
    X0001976  OBJ        1.800000000000e+02
    MARK      'MARKER'                 'INTEND'
    MARK      'MARKER'                 'INTORG'
    X0001977  C0001930   1.000000000000e+00
    X0001977  OBJ        1.800000000000e+02
    MARK      'MARKER'                 'INTEND'
    MARK      'MARKER'                 'INTORG'
    X0001978  C0001893  -1.600000000000e+02
    X0001978  OBJ        1.800000000000e+02
    MARK      'MARKER'                 'INTEND'
    MARK      'MARKER'                 'INTORG'
    X0001979  C0001897  -1.600000000000e+02
    X0001979  OBJ        1.800000000000e+02
    MARK      'MARKER'                 'INTEND'
    MARK      'MARKER'                 'INTORG'
    X0001980  C0001901  -1.600000000000e+02
    X0001980  OBJ        1.800000000000e+02
    MARK      'MARKER'                 'INTEND'
    MARK      'MARKER'                 'INTORG'
    X0001981  C0001905  -1.600000000000e+02
    X0001981  OBJ        1.800000000000e+02
    MARK      'MARKER'                 'INTEND'
    MARK      'MARKER'                 'INTORG'
    X0001982  C0001909  -1.600000000000e+02
    X0001982  OBJ        1.800000000000e+02
    MARK      'MARKER'                 'INTEND'
    MARK      'MARKER'                 'INTORG'
    X0001983  C0001913  -1.600000000000e+02
    X0001983  OBJ        1.800000000000e+02
    MARK      'MARKER'                 'INTEND'
    MARK      'MARKER'                 'INTORG'
    X0001984  C0001920   1.000000000000e+00
    X0001984  OBJ        1.800000000000e+02
    MARK      'MARKER'                 'INTEND'
    MARK      'MARKER'                 'INTORG'
    X0001985  C0001925   1.000000000000e+00
    X0001985  OBJ        1.800000000000e+02
    MARK      'MARKER'                 'INTEND'
    MARK      'MARKER'                 'INTORG'
    X0001986  C0001932  -1.600000000000e+02
    X0001986  OBJ        1.080000000000e+03
    MARK      'MARKER'                 'INTEND'
    MARK      'MARKER'                 'INTORG'
    X0001987  C0001973   1.000000000000e+00
    X0001987  OBJ        1.080000000000e+03
    MARK      'MARKER'                 'INTEND'
    MARK      'MARKER'                 'INTORG'
    X0001988  C0001936  -1.600000000000e+02
    X0001988  OBJ        1.080000000000e+03
    MARK      'MARKER'                 'INTEND'
    MARK      'MARKER'                 'INTORG'
    X0001989  C0001940  -1.600000000000e+02
    X0001989  OBJ        1.080000000000e+03
    MARK      'MARKER'                 'INTEND'
    MARK      'MARKER'                 'INTORG'
    X0001990  C0001944  -1.600000000000e+02
    X0001990  OBJ        1.080000000000e+03
    MARK      'MARKER'                 'INTEND'
    MARK      'MARKER'                 'INTORG'
    X0001991  C0001948  -1.600000000000e+02
    X0001991  OBJ        1.080000000000e+03
    MARK      'MARKER'                 'INTEND'
    MARK      'MARKER'                 'INTORG'
    X0001992  C0001952  -1.600000000000e+02
    X0001992  OBJ        1.080000000000e+03
    MARK      'MARKER'                 'INTEND'
    MARK      'MARKER'                 'INTORG'
    X0001993  C0001956  -1.600000000000e+02
    X0001993  OBJ        1.080000000000e+03
    MARK      'MARKER'                 'INTEND'
    MARK      'MARKER'                 'INTORG'
    X0001994  C0001963   1.000000000000e+00
    X0001994  OBJ        1.080000000000e+03
    MARK      'MARKER'                 'INTEND'
    MARK      'MARKER'                 'INTORG'
    X0001995  C0001968   1.000000000000e+00
    X0001995  OBJ        1.080000000000e+03
    MARK      'MARKER'                 'INTEND'
    MARK      'MARKER'                 'INTORG'
    X0001996  C0001975  -1.600000000000e+02
    X0001996  OBJ        1.020000000000e+03
    MARK      'MARKER'                 'INTEND'
    MARK      'MARKER'                 'INTORG'
    X0001997  C0002016   1.000000000000e+00
    X0001997  OBJ        1.020000000000e+03
    MARK      'MARKER'                 'INTEND'
    MARK      'MARKER'                 'INTORG'
    X0001998  C0001979  -1.600000000000e+02
    X0001998  OBJ        1.020000000000e+03
    MARK      'MARKER'                 'INTEND'
    MARK      'MARKER'                 'INTORG'
    X0001999  C0001983  -1.600000000000e+02
    X0001999  OBJ        1.020000000000e+03
    MARK      'MARKER'                 'INTEND'
    MARK      'MARKER'                 'INTORG'
    X0002000  C0001987  -1.600000000000e+02
    X0002000  OBJ        1.020000000000e+03
    MARK      'MARKER'                 'INTEND'
    MARK      'MARKER'                 'INTORG'
    X0002001  C0001991  -1.600000000000e+02
    X0002001  OBJ        1.020000000000e+03
    MARK      'MARKER'                 'INTEND'
    MARK      'MARKER'                 'INTORG'
    X0002002  C0001995  -1.600000000000e+02
    X0002002  OBJ        1.020000000000e+03
    MARK      'MARKER'                 'INTEND'
    MARK      'MARKER'                 'INTORG'
    X0002003  C0001999  -1.600000000000e+02
    X0002003  OBJ        1.020000000000e+03
    MARK      'MARKER'                 'INTEND'
    MARK      'MARKER'                 'INTORG'
    X0002004  C0002006   1.000000000000e+00
    X0002004  OBJ        1.020000000000e+03
    MARK      'MARKER'                 'INTEND'
    MARK      'MARKER'                 'INTORG'
    X0002005  C0002011   1.000000000000e+00
    X0002005  OBJ        1.020000000000e+03
    MARK      'MARKER'                 'INTEND'
    MARK      'MARKER'                 'INTORG'
    X0002006  C0002018  -1.600000000000e+02
    X0002006  OBJ        6.000000000000e+02
    MARK      'MARKER'                 'INTEND'
    MARK      'MARKER'                 'INTORG'
    X0002007  C0002059   1.000000000000e+00
    X0002007  OBJ        6.000000000000e+02
    MARK      'MARKER'                 'INTEND'
    MARK      'MARKER'                 'INTORG'
    X0002008  C0002022  -1.600000000000e+02
    X0002008  OBJ        6.000000000000e+02
    MARK      'MARKER'                 'INTEND'
    MARK      'MARKER'                 'INTORG'
    X0002009  C0002026  -1.600000000000e+02
    X0002009  OBJ        6.000000000000e+02
    MARK      'MARKER'                 'INTEND'
    MARK      'MARKER'                 'INTORG'
    X0002010  C0002030  -1.600000000000e+02
    X0002010  OBJ        6.000000000000e+02
    MARK      'MARKER'                 'INTEND'
    MARK      'MARKER'                 'INTORG'
    X0002011  C0002034  -1.600000000000e+02
    X0002011  OBJ        6.000000000000e+02
    MARK      'MARKER'                 'INTEND'
    MARK      'MARKER'                 'INTORG'
    X0002012  C0002038  -1.600000000000e+02
    X0002012  OBJ        6.000000000000e+02
    MARK      'MARKER'                 'INTEND'
    MARK      'MARKER'                 'INTORG'
    X0002013  C0002042  -1.600000000000e+02
    X0002013  OBJ        6.000000000000e+02
    MARK      'MARKER'                 'INTEND'
    MARK      'MARKER'                 'INTORG'
    X0002014  C0002049   1.000000000000e+00
    X0002014  OBJ        6.000000000000e+02
    MARK      'MARKER'                 'INTEND'
    MARK      'MARKER'                 'INTORG'
    X0002015  C0002054   1.000000000000e+00
    X0002015  OBJ        6.000000000000e+02
    MARK      'MARKER'                 'INTEND'
    MARK      'MARKER'                 'INTORG'
    X0002016  C0002061  -1.600000000000e+02
    X0002016  OBJ        3.600000000000e+02
    MARK      'MARKER'                 'INTEND'
    MARK      'MARKER'                 'INTORG'
    X0002017  C0002102   1.000000000000e+00
    X0002017  OBJ        3.600000000000e+02
    MARK      'MARKER'                 'INTEND'
    MARK      'MARKER'                 'INTORG'
    X0002018  C0002065  -1.600000000000e+02
    X0002018  OBJ        3.600000000000e+02
    MARK      'MARKER'                 'INTEND'
    MARK      'MARKER'                 'INTORG'
    X0002019  C0002069  -1.600000000000e+02
    X0002019  OBJ        3.600000000000e+02
    MARK      'MARKER'                 'INTEND'
    MARK      'MARKER'                 'INTORG'
    X0002020  C0002073  -1.600000000000e+02
    X0002020  OBJ        3.600000000000e+02
    MARK      'MARKER'                 'INTEND'
    MARK      'MARKER'                 'INTORG'
    X0002021  C0002077  -1.600000000000e+02
    X0002021  OBJ        3.600000000000e+02
    MARK      'MARKER'                 'INTEND'
    MARK      'MARKER'                 'INTORG'
    X0002022  C0002081  -1.600000000000e+02
    X0002022  OBJ        3.600000000000e+02
    MARK      'MARKER'                 'INTEND'
    MARK      'MARKER'                 'INTORG'
    X0002023  C0002085  -1.600000000000e+02
    X0002023  OBJ        3.600000000000e+02
    MARK      'MARKER'                 'INTEND'
    MARK      'MARKER'                 'INTORG'
    X0002024  C0002092   1.000000000000e+00
    X0002024  OBJ        3.600000000000e+02
    MARK      'MARKER'                 'INTEND'
    MARK      'MARKER'                 'INTORG'
    X0002025  C0002097   1.000000000000e+00
    X0002025  OBJ        3.600000000000e+02
    MARK      'MARKER'                 'INTEND'
    MARK      'MARKER'                 'INTORG'
    X0002026  C0002104  -1.600000000000e+02
    X0002026  OBJ        1.800000000000e+02
    MARK      'MARKER'                 'INTEND'
    MARK      'MARKER'                 'INTORG'
    X0002027  C0002145   1.000000000000e+00
    X0002027  OBJ        1.800000000000e+02
    MARK      'MARKER'                 'INTEND'
    MARK      'MARKER'                 'INTORG'
    X0002028  C0002108  -1.600000000000e+02
    X0002028  OBJ        1.800000000000e+02
    MARK      'MARKER'                 'INTEND'
    MARK      'MARKER'                 'INTORG'
    X0002029  C0002112  -1.600000000000e+02
    X0002029  OBJ        1.800000000000e+02
    MARK      'MARKER'                 'INTEND'
    MARK      'MARKER'                 'INTORG'
    X0002030  C0002116  -1.600000000000e+02
    X0002030  OBJ        1.800000000000e+02
    MARK      'MARKER'                 'INTEND'
    MARK      'MARKER'                 'INTORG'
    X0002031  C0002120  -1.600000000000e+02
    X0002031  OBJ        1.800000000000e+02
    MARK      'MARKER'                 'INTEND'
    MARK      'MARKER'                 'INTORG'
    X0002032  C0002124  -1.600000000000e+02
    X0002032  OBJ        1.800000000000e+02
    MARK      'MARKER'                 'INTEND'
    MARK      'MARKER'                 'INTORG'
    X0002033  C0002128  -1.600000000000e+02
    X0002033  OBJ        1.800000000000e+02
    MARK      'MARKER'                 'INTEND'
    MARK      'MARKER'                 'INTORG'
    X0002034  C0002135   1.000000000000e+00
    X0002034  OBJ        1.800000000000e+02
    MARK      'MARKER'                 'INTEND'
    MARK      'MARKER'                 'INTORG'
    X0002035  C0002140   1.000000000000e+00
    X0002035  OBJ        1.800000000000e+02
    MARK      'MARKER'                 'INTEND'
    MARK      'MARKER'                 'INTORG'
    X0002036  C0002196   1.000000000000e+00
    MARK      'MARKER'                 'INTEND'
    MARK      'MARKER'                 'INTORG'
    X0002037  C0002205   1.000000000000e+00
    MARK      'MARKER'                 'INTEND'
    MARK      'MARKER'                 'INTORG'
    X0002038  C0002197   1.000000000000e+00
    MARK      'MARKER'                 'INTEND'
    MARK      'MARKER'                 'INTORG'
    X0002039  C0002198   1.000000000000e+00
    MARK      'MARKER'                 'INTEND'
    MARK      'MARKER'                 'INTORG'
    X0002040  C0002199   1.000000000000e+00
    MARK      'MARKER'                 'INTEND'
    MARK      'MARKER'                 'INTORG'
    X0002041  C0002200   1.000000000000e+00
    MARK      'MARKER'                 'INTEND'
    MARK      'MARKER'                 'INTORG'
    X0002042  C0002201   1.000000000000e+00
    MARK      'MARKER'                 'INTEND'
    MARK      'MARKER'                 'INTORG'
    X0002043  C0002202   1.000000000000e+00
    MARK      'MARKER'                 'INTEND'
    MARK      'MARKER'                 'INTORG'
    X0002044  C0002203   1.000000000000e+00
    MARK      'MARKER'                 'INTEND'
    MARK      'MARKER'                 'INTORG'
    X0002045  C0002204   1.000000000000e+00
    MARK      'MARKER'                 'INTEND'
RHS
    RHS       C0000000   0.000000000000e+00
    RHS       C0000001   5.000000000000e+00
    RHS       C0000002   1.000000000000e+01
    RHS       C0000003   2.000000000000e+01
    RHS       C0000004   3.500000000000e+01
    RHS       C0000005   1.200000000000e+02
    RHS       C0000006   0.000000000000e+00
    RHS       C0000007   0.000000000000e+00
    RHS       C0000008   0.000000000000e+00
    RHS       C0000009   0.000000000000e+00
    RHS       C0000010   0.000000000000e+00
    RHS       C0000011   0.000000000000e+00
    RHS       C0000012   0.000000000000e+00
    RHS       C0000013   0.000000000000e+00
    RHS       C0000014   0.000000000000e+00
    RHS       C0000015   0.000000000000e+00
    RHS       C0000016   0.000000000000e+00
    RHS       C0000017   0.000000000000e+00
    RHS       C0000018   0.000000000000e+00
    RHS       C0000019   0.000000000000e+00
    RHS       C0000020   0.000000000000e+00
    RHS       C0000021   0.000000000000e+00
    RHS       C0000022   0.000000000000e+00
    RHS       C0000023   0.000000000000e+00
    RHS       C0000024   0.000000000000e+00
    RHS       C0000025   0.000000000000e+00
    RHS       C0000026   0.000000000000e+00
    RHS       C0000027   0.000000000000e+00
    RHS       C0000028   0.000000000000e+00
    RHS       C0000029   0.000000000000e+00
    RHS       C0000030   0.000000000000e+00
    RHS       C0000031   0.000000000000e+00
    RHS       C0000032   0.000000000000e+00
    RHS       C0000033   0.000000000000e+00
    RHS       C0000034   0.000000000000e+00
    RHS       C0000035   0.000000000000e+00
    RHS       C0000036   0.000000000000e+00
    RHS       C0000037   0.000000000000e+00
    RHS       C0000038   0.000000000000e+00
    RHS       C0000039   0.000000000000e+00
    RHS       C0000040   0.000000000000e+00
    RHS       C0000041   0.000000000000e+00
    RHS       C0000042   0.000000000000e+00
    RHS       C0000043   0.000000000000e+00
    RHS       C0000044   0.000000000000e+00
    RHS       C0000045   0.000000000000e+00
    RHS       C0000046   0.000000000000e+00
    RHS       C0000047   0.000000000000e+00
    RHS       C0000048   0.000000000000e+00
    RHS       C0000049   0.000000000000e+00
    RHS       C0000050   0.000000000000e+00
    RHS       C0000051   0.000000000000e+00
    RHS       C0000052   0.000000000000e+00
    RHS       C0000053   0.000000000000e+00
    RHS       C0000054   0.000000000000e+00
    RHS       C0000055   0.000000000000e+00
    RHS       C0000056   0.000000000000e+00
    RHS       C0000057   0.000000000000e+00
    RHS       C0000058   0.000000000000e+00
    RHS       C0000059   0.000000000000e+00
    RHS       C0000060   0.000000000000e+00
    RHS       C0000061   0.000000000000e+00
    RHS       C0000062   0.000000000000e+00
    RHS       C0000063   0.000000000000e+00
    RHS       C0000064   0.000000000000e+00
    RHS       C0000065   0.000000000000e+00
    RHS       C0000066   0.000000000000e+00
    RHS       C0000067   0.000000000000e+00
    RHS       C0000068   0.000000000000e+00
    RHS       C0000069   0.000000000000e+00
    RHS       C0000070   0.000000000000e+00
    RHS       C0000071   0.000000000000e+00
    RHS       C0000072   0.000000000000e+00
    RHS       C0000073   0.000000000000e+00
    RHS       C0000074   0.000000000000e+00
    RHS       C0000075   0.000000000000e+00
    RHS       C0000076   0.000000000000e+00
    RHS       C0000077   0.000000000000e+00
    RHS       C0000078   0.000000000000e+00
    RHS       C0000079   0.000000000000e+00
    RHS       C0000080   0.000000000000e+00
    RHS       C0000081   0.000000000000e+00
    RHS       C0000082   0.000000000000e+00
    RHS       C0000083   0.000000000000e+00
    RHS       C0000084   0.000000000000e+00
    RHS       C0000085   0.000000000000e+00
    RHS       C0000086   0.000000000000e+00
    RHS       C0000087   0.000000000000e+00
    RHS       C0000088   0.000000000000e+00
    RHS       C0000089   0.000000000000e+00
    RHS       C0000090   0.000000000000e+00
    RHS       C0000091   0.000000000000e+00
    RHS       C0000092   0.000000000000e+00
    RHS       C0000093   0.000000000000e+00
    RHS       C0000094   0.000000000000e+00
    RHS       C0000095   0.000000000000e+00
    RHS       C0000096   0.000000000000e+00
    RHS       C0000097   0.000000000000e+00
    RHS       C0000098   0.000000000000e+00
    RHS       C0000099   0.000000000000e+00
    RHS       C0000100   0.000000000000e+00
    RHS       C0000101   0.000000000000e+00
    RHS       C0000102   0.000000000000e+00
    RHS       C0000103   0.000000000000e+00
    RHS       C0000104   0.000000000000e+00
    RHS       C0000105   0.000000000000e+00
    RHS       C0000106   0.000000000000e+00
    RHS       C0000107   0.000000000000e+00
    RHS       C0000108   0.000000000000e+00
    RHS       C0000109   0.000000000000e+00
    RHS       C0000110   0.000000000000e+00
    RHS       C0000111   0.000000000000e+00
    RHS       C0000112   0.000000000000e+00
    RHS       C0000113   0.000000000000e+00
    RHS       C0000114   0.000000000000e+00
    RHS       C0000115   0.000000000000e+00
    RHS       C0000116   0.000000000000e+00
    RHS       C0000117   0.000000000000e+00
    RHS       C0000118   0.000000000000e+00
    RHS       C0000119   0.000000000000e+00
    RHS       C0000120   0.000000000000e+00
    RHS       C0000121   0.000000000000e+00
    RHS       C0000122   0.000000000000e+00
    RHS       C0000123   0.000000000000e+00
    RHS       C0000124   0.000000000000e+00
    RHS       C0000125   0.000000000000e+00
    RHS       C0000126   0.000000000000e+00
    RHS       C0000127   0.000000000000e+00
    RHS       C0000128   0.000000000000e+00
    RHS       C0000129   0.000000000000e+00
    RHS       C0000130   0.000000000000e+00
    RHS       C0000131   0.000000000000e+00
    RHS       C0000132   0.000000000000e+00
    RHS       C0000133   0.000000000000e+00
    RHS       C0000134   0.000000000000e+00
    RHS       C0000135   0.000000000000e+00
    RHS       C0000136   0.000000000000e+00
    RHS       C0000137   0.000000000000e+00
    RHS       C0000138   0.000000000000e+00
    RHS       C0000139   0.000000000000e+00
    RHS       C0000140   0.000000000000e+00
    RHS       C0000141   0.000000000000e+00
    RHS       C0000142   0.000000000000e+00
    RHS       C0000143   0.000000000000e+00
    RHS       C0000144   0.000000000000e+00
    RHS       C0000145   0.000000000000e+00
    RHS       C0000146   0.000000000000e+00
    RHS       C0000147   0.000000000000e+00
    RHS       C0000148   0.000000000000e+00
    RHS       C0000149   0.000000000000e+00
    RHS       C0000150   0.000000000000e+00
    RHS       C0000151   0.000000000000e+00
    RHS       C0000152   0.000000000000e+00
    RHS       C0000153   0.000000000000e+00
    RHS       C0000154   0.000000000000e+00
    RHS       C0000155   0.000000000000e+00
    RHS       C0000156   0.000000000000e+00
    RHS       C0000157   0.000000000000e+00
    RHS       C0000158   0.000000000000e+00
    RHS       C0000159   0.000000000000e+00
    RHS       C0000160   0.000000000000e+00
    RHS       C0000161   0.000000000000e+00
    RHS       C0000162   0.000000000000e+00
    RHS       C0000163   0.000000000000e+00
    RHS       C0000164   0.000000000000e+00
    RHS       C0000165   0.000000000000e+00
    RHS       C0000166   0.000000000000e+00
    RHS       C0000167   0.000000000000e+00
    RHS       C0000168   0.000000000000e+00
    RHS       C0000169   0.000000000000e+00
    RHS       C0000170   0.000000000000e+00
    RHS       C0000171   0.000000000000e+00
    RHS       C0000172   0.000000000000e+00
    RHS       C0000173   0.000000000000e+00
    RHS       C0000174   0.000000000000e+00
    RHS       C0000175   0.000000000000e+00
    RHS       C0000176   0.000000000000e+00
    RHS       C0000177   0.000000000000e+00
    RHS       C0000178   0.000000000000e+00
    RHS       C0000179   0.000000000000e+00
    RHS       C0000180   0.000000000000e+00
    RHS       C0000181   0.000000000000e+00
    RHS       C0000182   0.000000000000e+00
    RHS       C0000183   0.000000000000e+00
    RHS       C0000184   0.000000000000e+00
    RHS       C0000185   0.000000000000e+00
    RHS       C0000186   0.000000000000e+00
    RHS       C0000187   0.000000000000e+00
    RHS       C0000188   0.000000000000e+00
    RHS       C0000189   0.000000000000e+00
    RHS       C0000190   0.000000000000e+00
    RHS       C0000191   0.000000000000e+00
    RHS       C0000192   0.000000000000e+00
    RHS       C0000193   0.000000000000e+00
    RHS       C0000194   0.000000000000e+00
    RHS       C0000195   0.000000000000e+00
    RHS       C0000196   0.000000000000e+00
    RHS       C0000197   0.000000000000e+00
    RHS       C0000198   0.000000000000e+00
    RHS       C0000199   0.000000000000e+00
    RHS       C0000200   0.000000000000e+00
    RHS       C0000201   0.000000000000e+00
    RHS       C0000202   0.000000000000e+00
    RHS       C0000203   0.000000000000e+00
    RHS       C0000204   0.000000000000e+00
    RHS       C0000205   0.000000000000e+00
    RHS       C0000206   0.000000000000e+00
    RHS       C0000207   0.000000000000e+00
    RHS       C0000208   0.000000000000e+00
    RHS       C0000209   0.000000000000e+00
    RHS       C0000210   0.000000000000e+00
    RHS       C0000211   0.000000000000e+00
    RHS       C0000212   0.000000000000e+00
    RHS       C0000213   0.000000000000e+00
    RHS       C0000214   0.000000000000e+00
    RHS       C0000215   0.000000000000e+00
    RHS       C0000216   0.000000000000e+00
    RHS       C0000217   0.000000000000e+00
    RHS       C0000218   0.000000000000e+00
    RHS       C0000219   0.000000000000e+00
    RHS       C0000220   0.000000000000e+00
    RHS       C0000221   0.000000000000e+00
    RHS       C0000222   0.000000000000e+00
    RHS       C0000223   0.000000000000e+00
    RHS       C0000224   0.000000000000e+00
    RHS       C0000225   0.000000000000e+00
    RHS       C0000226   0.000000000000e+00
    RHS       C0000227   0.000000000000e+00
    RHS       C0000228   0.000000000000e+00
    RHS       C0000229   0.000000000000e+00
    RHS       C0000230   0.000000000000e+00
    RHS       C0000231   0.000000000000e+00
    RHS       C0000232   0.000000000000e+00
    RHS       C0000233   0.000000000000e+00
    RHS       C0000234   0.000000000000e+00
    RHS       C0000235   0.000000000000e+00
    RHS       C0000236   0.000000000000e+00
    RHS       C0000237   0.000000000000e+00
    RHS       C0000238   0.000000000000e+00
    RHS       C0000239   0.000000000000e+00
    RHS       C0000240   0.000000000000e+00
    RHS       C0000241   0.000000000000e+00
    RHS       C0000242   0.000000000000e+00
    RHS       C0000243   0.000000000000e+00
    RHS       C0000244   0.000000000000e+00
    RHS       C0000245   0.000000000000e+00
    RHS       C0000246   0.000000000000e+00
    RHS       C0000247   0.000000000000e+00
    RHS       C0000248   0.000000000000e+00
    RHS       C0000249   0.000000000000e+00
    RHS       C0000250   0.000000000000e+00
    RHS       C0000251   0.000000000000e+00
    RHS       C0000252   0.000000000000e+00
    RHS       C0000253   0.000000000000e+00
    RHS       C0000254   0.000000000000e+00
    RHS       C0000255   0.000000000000e+00
    RHS       C0000256   0.000000000000e+00
    RHS       C0000257   0.000000000000e+00
    RHS       C0000258   0.000000000000e+00
    RHS       C0000259   0.000000000000e+00
    RHS       C0000260   0.000000000000e+00
    RHS       C0000261   0.000000000000e+00
    RHS       C0000262   0.000000000000e+00
    RHS       C0000263   0.000000000000e+00
    RHS       C0000264   0.000000000000e+00
    RHS       C0000265   0.000000000000e+00
    RHS       C0000266   0.000000000000e+00
    RHS       C0000267   0.000000000000e+00
    RHS       C0000268   0.000000000000e+00
    RHS       C0000269   0.000000000000e+00
    RHS       C0000270   0.000000000000e+00
    RHS       C0000271   0.000000000000e+00
    RHS       C0000272   0.000000000000e+00
    RHS       C0000273   0.000000000000e+00
    RHS       C0000274   0.000000000000e+00
    RHS       C0000275   0.000000000000e+00
    RHS       C0000276   0.000000000000e+00
    RHS       C0000277   0.000000000000e+00
    RHS       C0000278   0.000000000000e+00
    RHS       C0000279   0.000000000000e+00
    RHS       C0000280   0.000000000000e+00
    RHS       C0000281   0.000000000000e+00
    RHS       C0000282   0.000000000000e+00
    RHS       C0000283   0.000000000000e+00
    RHS       C0000284   0.000000000000e+00
    RHS       C0000285   0.000000000000e+00
    RHS       C0000286   0.000000000000e+00
    RHS       C0000287   0.000000000000e+00
    RHS       C0000288   0.000000000000e+00
    RHS       C0000289   0.000000000000e+00
    RHS       C0000290   0.000000000000e+00
    RHS       C0000291   0.000000000000e+00
    RHS       C0000292   0.000000000000e+00
    RHS       C0000293   0.000000000000e+00
    RHS       C0000294   0.000000000000e+00
    RHS       C0000295   0.000000000000e+00
    RHS       C0000296   0.000000000000e+00
    RHS       C0000297   0.000000000000e+00
    RHS       C0000298   0.000000000000e+00
    RHS       C0000299   0.000000000000e+00
    RHS       C0000300   0.000000000000e+00
    RHS       C0000301   0.000000000000e+00
    RHS       C0000302   0.000000000000e+00
    RHS       C0000303   0.000000000000e+00
    RHS       C0000304   0.000000000000e+00
    RHS       C0000305   0.000000000000e+00
    RHS       C0000306   0.000000000000e+00
    RHS       C0000307   0.000000000000e+00
    RHS       C0000308   0.000000000000e+00
    RHS       C0000309   0.000000000000e+00
    RHS       C0000310   0.000000000000e+00
    RHS       C0000311   0.000000000000e+00
    RHS       C0000312   0.000000000000e+00
    RHS       C0000313   0.000000000000e+00
    RHS       C0000314   0.000000000000e+00
    RHS       C0000315   0.000000000000e+00
    RHS       C0000316   0.000000000000e+00
    RHS       C0000317   0.000000000000e+00
    RHS       C0000318   0.000000000000e+00
    RHS       C0000319   0.000000000000e+00
    RHS       C0000320   0.000000000000e+00
    RHS       C0000321   0.000000000000e+00
    RHS       C0000322   0.000000000000e+00
    RHS       C0000323   0.000000000000e+00
    RHS       C0000324   0.000000000000e+00
    RHS       C0000325   0.000000000000e+00
    RHS       C0000326   0.000000000000e+00
    RHS       C0000327   0.000000000000e+00
    RHS       C0000328   0.000000000000e+00
    RHS       C0000329   0.000000000000e+00
    RHS       C0000330   0.000000000000e+00
    RHS       C0000331   0.000000000000e+00
    RHS       C0000332   0.000000000000e+00
    RHS       C0000333   0.000000000000e+00
    RHS       C0000334   0.000000000000e+00
    RHS       C0000335   0.000000000000e+00
    RHS       C0000336   0.000000000000e+00
    RHS       C0000337   0.000000000000e+00
    RHS       C0000338   0.000000000000e+00
    RHS       C0000339   0.000000000000e+00
    RHS       C0000340   0.000000000000e+00
    RHS       C0000341   0.000000000000e+00
    RHS       C0000342   0.000000000000e+00
    RHS       C0000343   0.000000000000e+00
    RHS       C0000344   0.000000000000e+00
    RHS       C0000345   0.000000000000e+00
    RHS       C0000346   0.000000000000e+00
    RHS       C0000347   0.000000000000e+00
    RHS       C0000348   0.000000000000e+00
    RHS       C0000349   0.000000000000e+00
    RHS       C0000350   0.000000000000e+00
    RHS       C0000351   0.000000000000e+00
    RHS       C0000352   0.000000000000e+00
    RHS       C0000353   0.000000000000e+00
    RHS       C0000354   0.000000000000e+00
    RHS       C0000355   0.000000000000e+00
    RHS       C0000356   0.000000000000e+00
    RHS       C0000357   0.000000000000e+00
    RHS       C0000358   0.000000000000e+00
    RHS       C0000359   0.000000000000e+00
    RHS       C0000360   0.000000000000e+00
    RHS       C0000361   0.000000000000e+00
    RHS       C0000362   0.000000000000e+00
    RHS       C0000363   0.000000000000e+00
    RHS       C0000364   0.000000000000e+00
    RHS       C0000365   0.000000000000e+00
    RHS       C0000366   1.000000000000e+01
    RHS       C0000367  -4.000000000000e+00
    RHS       C0000368  -6.000000000000e+00
    RHS       C0000369  -3.000000000000e+00
    RHS       C0000370  -2.900000000000e+01
    RHS       C0000371  -8.000000000000e+00
    RHS       C0000372  -6.000000000000e+00
    RHS       C0000373  -8.000000000000e+00
    RHS       C0000374  -7.000000000000e+00
    RHS       C0000375  -6.000000000000e+00
    RHS       C0000376  -7.000000000000e+00
    RHS       C0000377  -7.000000000000e+00
    RHS       C0000378  -1.600000000000e+01
    RHS       C0000379  -4.000000000000e+00
    RHS       C0000380  -3.000000000000e+00
    RHS       C0000381   1.000000000000e+01
    RHS       C0000382  -5.000000000000e+00
    RHS       C0000383  -5.000000000000e+00
    RHS       C0000384  -5.000000000000e+00
    RHS       C0000385  -6.000000000000e+00
    RHS       C0000386  -7.000000000000e+00
    RHS       C0000387  -7.000000000000e+00
    RHS       C0000388  -2.800000000000e+01
    RHS       C0000389   3.000000000000e+00
    RHS       C0000390   6.000000000000e+00
    RHS       C0000391  -2.900000000000e+01
    RHS       C0000392  -4.000000000000e+00
    RHS       C0000393  -5.000000000000e+00
    RHS       C0000394  -5.000000000000e+00
    RHS       C0000395  -7.000000000000e+00
    RHS       C0000396  -1.700000000000e+01
    RHS       C0000397   1.000000000000e+01
    RHS       C0000398  -6.000000000000e+00
    RHS       C0000399  -8.000000000000e+00
    RHS       C0000400  -1.600000000000e+01
    RHS       C0000401  -7.000000000000e+00
    RHS       C0000402  -2.000000000000e+00
    RHS       C0000403   3.000000000000e+00
    RHS       C0000404  -3.000000000000e+00
    RHS       C0000405  -2.600000000000e+01
    RHS       C0000406  -2.000000000000e+00
    RHS       C0000407  -2.000000000000e+00
    RHS       C0000408  -2.000000000000e+00
    RHS       C0000409  -8.000000000000e+00
    RHS       C0000410   7.000000000000e+00
    RHS       C0000411  -7.000000000000e+00
    RHS       C0000412  -1.600000000000e+01
    RHS       C0000413  -4.000000000000e+00
    RHS       C0000414  -7.000000000000e+00
    RHS       C0000415  -7.000000000000e+00
    RHS       C0000416  -7.000000000000e+00
    RHS       C0000417  -2.400000000000e+01
    RHS       C0000418  -8.000000000000e+00
    RHS       C0000419  -4.000000000000e+00
    RHS       C0000420  -2.000000000000e+00
    RHS       C0000421  -7.000000000000e+00
    RHS       C0000422  -6.000000000000e+00
    RHS       C0000423  -4.000000000000e+00
    RHS       C0000424   1.000000000000e+01
    RHS       C0000425   2.000000000000e+00
    RHS       C0000426   1.080000000000e+02
    RHS       C0000427   1.180000000000e+02
    RHS       C0000428   1.060000000000e+02
    RHS       C0000429   8.200000000000e+01
    RHS       C0000430   9.900000000000e+01
    RHS       C0000431   8.600000000000e+01
    RHS       C0000432   9.700000000000e+01
    RHS       C0000433   7.100000000000e+01
    RHS       C0000434   8.100000000000e+01
    RHS       C0000435   9.800000000000e+01
    RHS       C0000436   0.000000000000e+00
    RHS       C0000437  -4.200000000000e+01
    RHS       C0000438   0.000000000000e+00
    RHS       C0000439   0.000000000000e+00
    RHS       C0000440   0.000000000000e+00
    RHS       C0000441  -4.200000000000e+01
    RHS       C0000442   0.000000000000e+00
    RHS       C0000443   0.000000000000e+00
    RHS       C0000444   0.000000000000e+00
    RHS       C0000445  -4.200000000000e+01
    RHS       C0000446   0.000000000000e+00
    RHS       C0000447   0.000000000000e+00
    RHS       C0000448   0.000000000000e+00
    RHS       C0000449  -4.200000000000e+01
    RHS       C0000450   0.000000000000e+00
    RHS       C0000451   0.000000000000e+00
    RHS       C0000452   0.000000000000e+00
    RHS       C0000453  -4.200000000000e+01
    RHS       C0000454   0.000000000000e+00
    RHS       C0000455   0.000000000000e+00
    RHS       C0000456   0.000000000000e+00
    RHS       C0000457  -4.200000000000e+01
    RHS       C0000458   0.000000000000e+00
    RHS       C0000459   0.000000000000e+00
    RHS       C0000460   0.000000000000e+00
    RHS       C0000461  -4.200000000000e+01
    RHS       C0000462   0.000000000000e+00
    RHS       C0000463   0.000000000000e+00
    RHS       C0000464   0.000000000000e+00
    RHS       C0000465  -4.200000000000e+01
    RHS       C0000466   0.000000000000e+00
    RHS       C0000467   0.000000000000e+00
    RHS       C0000468   0.000000000000e+00
    RHS       C0000469  -4.200000000000e+01
    RHS       C0000470   0.000000000000e+00
    RHS       C0000471   0.000000000000e+00
    RHS       C0000472   0.000000000000e+00
    RHS       C0000473  -4.200000000000e+01
    RHS       C0000474   0.000000000000e+00
    RHS       C0000475   0.000000000000e+00
    RHS       C0000476   0.000000000000e+00
    RHS       C0000477  -4.200000000000e+01
    RHS       C0000478   0.000000000000e+00
    RHS       C0000479   0.000000000000e+00
    RHS       C0000480   0.000000000000e+00
    RHS       C0000481  -4.200000000000e+01
    RHS       C0000482   0.000000000000e+00
    RHS       C0000483   0.000000000000e+00
    RHS       C0000484   0.000000000000e+00
    RHS       C0000485  -4.200000000000e+01
    RHS       C0000486   0.000000000000e+00
    RHS       C0000487   0.000000000000e+00
    RHS       C0000488   0.000000000000e+00
    RHS       C0000489  -4.200000000000e+01
    RHS       C0000490   0.000000000000e+00
    RHS       C0000491   0.000000000000e+00
    RHS       C0000492   0.000000000000e+00
    RHS       C0000493  -4.200000000000e+01
    RHS       C0000494   0.000000000000e+00
    RHS       C0000495   0.000000000000e+00
    RHS       C0000496   0.000000000000e+00
    RHS       C0000497  -4.200000000000e+01
    RHS       C0000498   0.000000000000e+00
    RHS       C0000499   0.000000000000e+00
    RHS       C0000500   0.000000000000e+00
    RHS       C0000501  -4.200000000000e+01
    RHS       C0000502   0.000000000000e+00
    RHS       C0000503   0.000000000000e+00
    RHS       C0000504   0.000000000000e+00
    RHS       C0000505  -4.200000000000e+01
    RHS       C0000506   0.000000000000e+00
    RHS       C0000507   0.000000000000e+00
    RHS       C0000508   0.000000000000e+00
    RHS       C0000509  -4.200000000000e+01
    RHS       C0000510   0.000000000000e+00
    RHS       C0000511   0.000000000000e+00
    RHS       C0000512   0.000000000000e+00
    RHS       C0000513  -4.200000000000e+01
    RHS       C0000514   0.000000000000e+00
    RHS       C0000515   0.000000000000e+00
    RHS       C0000516   0.000000000000e+00
    RHS       C0000517  -5.200000000000e+01
    RHS       C0000518   0.000000000000e+00
    RHS       C0000519   0.000000000000e+00
    RHS       C0000520   0.000000000000e+00
    RHS       C0000521  -5.200000000000e+01
    RHS       C0000522   0.000000000000e+00
    RHS       C0000523   0.000000000000e+00
    RHS       C0000524   0.000000000000e+00
    RHS       C0000525  -5.200000000000e+01
    RHS       C0000526   0.000000000000e+00
    RHS       C0000527   0.000000000000e+00
    RHS       C0000528   0.000000000000e+00
    RHS       C0000529  -5.200000000000e+01
    RHS       C0000530   0.000000000000e+00
    RHS       C0000531   0.000000000000e+00
    RHS       C0000532   0.000000000000e+00
    RHS       C0000533  -5.200000000000e+01
    RHS       C0000534   0.000000000000e+00
    RHS       C0000535   0.000000000000e+00
    RHS       C0000536   0.000000000000e+00
    RHS       C0000537  -5.200000000000e+01
    RHS       C0000538   0.000000000000e+00
    RHS       C0000539   0.000000000000e+00
    RHS       C0000540   0.000000000000e+00
    RHS       C0000541  -5.200000000000e+01
    RHS       C0000542   0.000000000000e+00
    RHS       C0000543   0.000000000000e+00
    RHS       C0000544   0.000000000000e+00
    RHS       C0000545  -5.200000000000e+01
    RHS       C0000546   0.000000000000e+00
    RHS       C0000547   0.000000000000e+00
    RHS       C0000548   0.000000000000e+00
    RHS       C0000549  -5.200000000000e+01
    RHS       C0000550   0.000000000000e+00
    RHS       C0000551   0.000000000000e+00
    RHS       C0000552   0.000000000000e+00
    RHS       C0000553  -5.200000000000e+01
    RHS       C0000554   0.000000000000e+00
    RHS       C0000555   0.000000000000e+00
    RHS       C0000556   0.000000000000e+00
    RHS       C0000557  -6.500000000000e+01
    RHS       C0000558   1.100000000000e+01
    RHS       C0000559  -1.100000000000e+01
    RHS       C0000560   0.000000000000e+00
    RHS       C0000561  -6.500000000000e+01
    RHS       C0000562   1.100000000000e+01
    RHS       C0000563  -1.100000000000e+01
    RHS       C0000564   0.000000000000e+00
    RHS       C0000565  -6.500000000000e+01
    RHS       C0000566   1.100000000000e+01
    RHS       C0000567  -1.100000000000e+01
    RHS       C0000568   0.000000000000e+00
    RHS       C0000569  -6.500000000000e+01
    RHS       C0000570   1.100000000000e+01
    RHS       C0000571  -1.100000000000e+01
    RHS       C0000572   0.000000000000e+00
    RHS       C0000573  -6.500000000000e+01
    RHS       C0000574   1.100000000000e+01
    RHS       C0000575  -1.100000000000e+01
    RHS       C0000576   0.000000000000e+00
    RHS       C0000577  -6.500000000000e+01
    RHS       C0000578   1.100000000000e+01
    RHS       C0000579  -1.100000000000e+01
    RHS       C0000580   0.000000000000e+00
    RHS       C0000581  -6.500000000000e+01
    RHS       C0000582   1.100000000000e+01
    RHS       C0000583  -1.100000000000e+01
    RHS       C0000584   0.000000000000e+00
    RHS       C0000585  -6.500000000000e+01
    RHS       C0000586   1.100000000000e+01
    RHS       C0000587  -1.100000000000e+01
    RHS       C0000588   0.000000000000e+00
    RHS       C0000589  -6.500000000000e+01
    RHS       C0000590   1.100000000000e+01
    RHS       C0000591  -1.100000000000e+01
    RHS       C0000592   0.000000000000e+00
    RHS       C0000593  -6.500000000000e+01
    RHS       C0000594   1.100000000000e+01
    RHS       C0000595  -1.100000000000e+01
    RHS       C0000596   0.000000000000e+00
    RHS       C0000597  -7.800000000000e+01
    RHS       C0000598   2.100000000000e+01
    RHS       C0000599  -2.100000000000e+01
    RHS       C0000600   0.000000000000e+00
    RHS       C0000601  -7.800000000000e+01
    RHS       C0000602   2.100000000000e+01
    RHS       C0000603  -2.100000000000e+01
    RHS       C0000604   0.000000000000e+00
    RHS       C0000605  -7.800000000000e+01
    RHS       C0000606   2.100000000000e+01
    RHS       C0000607  -2.100000000000e+01
    RHS       C0000608   0.000000000000e+00
    RHS       C0000609  -7.800000000000e+01
    RHS       C0000610   2.100000000000e+01
    RHS       C0000611  -2.100000000000e+01
    RHS       C0000612   0.000000000000e+00
    RHS       C0000613  -7.800000000000e+01
    RHS       C0000614   2.100000000000e+01
    RHS       C0000615  -2.100000000000e+01
    RHS       C0000616   0.000000000000e+00
    RHS       C0000617  -7.800000000000e+01
    RHS       C0000618   2.100000000000e+01
    RHS       C0000619  -2.100000000000e+01
    RHS       C0000620   0.000000000000e+00
    RHS       C0000621  -7.800000000000e+01
    RHS       C0000622   2.100000000000e+01
    RHS       C0000623  -2.100000000000e+01
    RHS       C0000624   0.000000000000e+00
    RHS       C0000625  -7.800000000000e+01
    RHS       C0000626   2.100000000000e+01
    RHS       C0000627  -2.100000000000e+01
    RHS       C0000628   0.000000000000e+00
    RHS       C0000629  -7.800000000000e+01
    RHS       C0000630   2.100000000000e+01
    RHS       C0000631  -2.100000000000e+01
    RHS       C0000632   0.000000000000e+00
    RHS       C0000633  -7.800000000000e+01
    RHS       C0000634   2.100000000000e+01
    RHS       C0000635  -2.100000000000e+01
    RHS       C0000636   0.000000000000e+00
    RHS       C0000637  -1.600000000000e+02
    RHS       C0000638   1.020000000000e+02
    RHS       C0000639  -1.020000000000e+02
    RHS       C0000640   0.000000000000e+00
    RHS       C0000641  -1.600000000000e+02
    RHS       C0000642   1.020000000000e+02
    RHS       C0000643  -1.020000000000e+02
    RHS       C0000644   0.000000000000e+00
    RHS       C0000645  -1.600000000000e+02
    RHS       C0000646   1.020000000000e+02
    RHS       C0000647  -1.020000000000e+02
    RHS       C0000648   0.000000000000e+00
    RHS       C0000649  -1.600000000000e+02
    RHS       C0000650   1.020000000000e+02
    RHS       C0000651  -1.020000000000e+02
    RHS       C0000652   0.000000000000e+00
    RHS       C0000653  -1.600000000000e+02
    RHS       C0000654   1.020000000000e+02
    RHS       C0000655  -1.020000000000e+02
    RHS       C0000656   0.000000000000e+00
    RHS       C0000657  -1.600000000000e+02
    RHS       C0000658   1.020000000000e+02
    RHS       C0000659  -1.020000000000e+02
    RHS       C0000660   0.000000000000e+00
    RHS       C0000661  -1.600000000000e+02
    RHS       C0000662   1.020000000000e+02
    RHS       C0000663  -1.020000000000e+02
    RHS       C0000664   0.000000000000e+00
    RHS       C0000665  -1.600000000000e+02
    RHS       C0000666   1.020000000000e+02
    RHS       C0000667  -1.020000000000e+02
    RHS       C0000668   0.000000000000e+00
    RHS       C0000669  -1.600000000000e+02
    RHS       C0000670   1.020000000000e+02
    RHS       C0000671  -1.020000000000e+02
    RHS       C0000672   0.000000000000e+00
    RHS       C0000673  -1.600000000000e+02
    RHS       C0000674   1.020000000000e+02
    RHS       C0000675  -1.020000000000e+02
    RHS       C0000676   9.000000000000e+00
    RHS       C0000677   0.000000000000e+00
    RHS       C0000678   0.000000000000e+00
    RHS       C0000679   9.000000000000e+00
    RHS       C0000680   0.000000000000e+00
    RHS       C0000681   0.000000000000e+00
    RHS       C0000682   9.000000000000e+00
    RHS       C0000683   0.000000000000e+00
    RHS       C0000684   0.000000000000e+00
    RHS       C0000685   9.000000000000e+00
    RHS       C0000686   0.000000000000e+00
    RHS       C0000687   0.000000000000e+00
    RHS       C0000688   9.000000000000e+00
    RHS       C0000689   0.000000000000e+00
    RHS       C0000690   0.000000000000e+00
    RHS       C0000691   9.000000000000e+00
    RHS       C0000692   0.000000000000e+00
    RHS       C0000693   0.000000000000e+00
    RHS       C0000694   9.000000000000e+00
    RHS       C0000695   0.000000000000e+00
    RHS       C0000696   0.000000000000e+00
    RHS       C0000697   9.000000000000e+00
    RHS       C0000698   0.000000000000e+00
    RHS       C0000699   0.000000000000e+00
    RHS       C0000700   9.000000000000e+00
    RHS       C0000701   0.000000000000e+00
    RHS       C0000702   0.000000000000e+00
    RHS       C0000703   9.000000000000e+00
    RHS       C0000704   0.000000000000e+00
    RHS       C0000705   0.000000000000e+00
    RHS       C0000706   9.000000000000e+00
    RHS       C0000707   0.000000000000e+00
    RHS       C0000708   0.000000000000e+00
    RHS       C0000709   9.000000000000e+00
    RHS       C0000710   0.000000000000e+00
    RHS       C0000711   0.000000000000e+00
    RHS       C0000712   9.000000000000e+00
    RHS       C0000713   0.000000000000e+00
    RHS       C0000714   0.000000000000e+00
    RHS       C0000715   9.000000000000e+00
    RHS       C0000716   0.000000000000e+00
    RHS       C0000717   0.000000000000e+00
    RHS       C0000718   9.000000000000e+00
    RHS       C0000719   0.000000000000e+00
    RHS       C0000720   0.000000000000e+00
    RHS       C0000721   9.000000000000e+00
    RHS       C0000722   0.000000000000e+00
    RHS       C0000723   0.000000000000e+00
    RHS       C0000724   9.000000000000e+00
    RHS       C0000725   0.000000000000e+00
    RHS       C0000726   0.000000000000e+00
    RHS       C0000727   9.000000000000e+00
    RHS       C0000728   0.000000000000e+00
    RHS       C0000729   0.000000000000e+00
    RHS       C0000730   9.000000000000e+00
    RHS       C0000731   0.000000000000e+00
    RHS       C0000732   0.000000000000e+00
    RHS       C0000733   9.000000000000e+00
    RHS       C0000734   0.000000000000e+00
    RHS       C0000735   0.000000000000e+00
    RHS       C0000736   9.000000000000e+00
    RHS       C0000737   0.000000000000e+00
    RHS       C0000738   0.000000000000e+00
    RHS       C0000739   9.000000000000e+00
    RHS       C0000740   0.000000000000e+00
    RHS       C0000741   0.000000000000e+00
    RHS       C0000742   9.000000000000e+00
    RHS       C0000743   0.000000000000e+00
    RHS       C0000744   0.000000000000e+00
    RHS       C0000745   9.000000000000e+00
    RHS       C0000746   0.000000000000e+00
    RHS       C0000747   0.000000000000e+00
    RHS       C0000748   9.000000000000e+00
    RHS       C0000749   0.000000000000e+00
    RHS       C0000750   0.000000000000e+00
    RHS       C0000751   9.000000000000e+00
    RHS       C0000752   0.000000000000e+00
    RHS       C0000753   0.000000000000e+00
    RHS       C0000754   9.000000000000e+00
    RHS       C0000755   0.000000000000e+00
    RHS       C0000756   0.000000000000e+00
    RHS       C0000757   9.000000000000e+00
    RHS       C0000758   0.000000000000e+00
    RHS       C0000759   0.000000000000e+00
    RHS       C0000760   9.000000000000e+00
    RHS       C0000761   0.000000000000e+00
    RHS       C0000762   0.000000000000e+00
    RHS       C0000763   9.000000000000e+00
    RHS       C0000764   0.000000000000e+00
    RHS       C0000765   0.000000000000e+00
    RHS       C0000766   9.000000000000e+00
    RHS       C0000767   0.000000000000e+00
    RHS       C0000768   0.000000000000e+00
    RHS       C0000769   9.000000000000e+00
    RHS       C0000770   0.000000000000e+00
    RHS       C0000771   0.000000000000e+00
    RHS       C0000772   9.000000000000e+00
    RHS       C0000773   0.000000000000e+00
    RHS       C0000774   0.000000000000e+00
    RHS       C0000775   9.000000000000e+00
    RHS       C0000776   0.000000000000e+00
    RHS       C0000777   0.000000000000e+00
    RHS       C0000778   9.000000000000e+00
    RHS       C0000779   0.000000000000e+00
    RHS       C0000780   0.000000000000e+00
    RHS       C0000781   9.000000000000e+00
    RHS       C0000782   0.000000000000e+00
    RHS       C0000783   0.000000000000e+00
    RHS       C0000784   9.000000000000e+00
    RHS       C0000785   0.000000000000e+00
    RHS       C0000786   0.000000000000e+00
    RHS       C0000787   9.000000000000e+00
    RHS       C0000788   0.000000000000e+00
    RHS       C0000789   0.000000000000e+00
    RHS       C0000790   9.000000000000e+00
    RHS       C0000791   0.000000000000e+00
    RHS       C0000792   0.000000000000e+00
    RHS       C0000793   9.000000000000e+00
    RHS       C0000794   0.000000000000e+00
    RHS       C0000795   0.000000000000e+00
    RHS       C0000796   9.000000000000e+00
    RHS       C0000797   0.000000000000e+00
    RHS       C0000798   0.000000000000e+00
    RHS       C0000799   9.000000000000e+00
    RHS       C0000800   0.000000000000e+00
    RHS       C0000801   0.000000000000e+00
    RHS       C0000802   9.000000000000e+00
    RHS       C0000803   0.000000000000e+00
    RHS       C0000804   0.000000000000e+00
    RHS       C0000805   9.000000000000e+00
    RHS       C0000806   0.000000000000e+00
    RHS       C0000807   0.000000000000e+00
    RHS       C0000808   9.000000000000e+00
    RHS       C0000809   0.000000000000e+00
    RHS       C0000810   0.000000000000e+00
    RHS       C0000811   9.000000000000e+00
    RHS       C0000812   0.000000000000e+00
    RHS       C0000813   0.000000000000e+00
    RHS       C0000814   9.000000000000e+00
    RHS       C0000815   0.000000000000e+00
    RHS       C0000816   0.000000000000e+00
    RHS       C0000817   9.000000000000e+00
    RHS       C0000818   0.000000000000e+00
    RHS       C0000819   0.000000000000e+00
    RHS       C0000820   9.000000000000e+00
    RHS       C0000821   0.000000000000e+00
    RHS       C0000822   0.000000000000e+00
    RHS       C0000823   9.000000000000e+00
    RHS       C0000824   0.000000000000e+00
    RHS       C0000825   0.000000000000e+00
    RHS       C0000826   9.000000000000e+00
    RHS       C0000827   0.000000000000e+00
    RHS       C0000828   0.000000000000e+00
    RHS       C0000829   9.000000000000e+00
    RHS       C0000830   0.000000000000e+00
    RHS       C0000831   0.000000000000e+00
    RHS       C0000832   9.000000000000e+00
    RHS       C0000833   0.000000000000e+00
    RHS       C0000834   0.000000000000e+00
    RHS       C0000835   9.000000000000e+00
    RHS       C0000836   0.000000000000e+00
    RHS       C0000837   0.000000000000e+00
    RHS       C0000838   9.000000000000e+00
    RHS       C0000839   0.000000000000e+00
    RHS       C0000840   0.000000000000e+00
    RHS       C0000841   9.000000000000e+00
    RHS       C0000842   0.000000000000e+00
    RHS       C0000843   0.000000000000e+00
    RHS       C0000844   9.000000000000e+00
    RHS       C0000845   0.000000000000e+00
    RHS       C0000846   0.000000000000e+00
    RHS       C0000847   9.000000000000e+00
    RHS       C0000848   0.000000000000e+00
    RHS       C0000849   0.000000000000e+00
    RHS       C0000850   9.000000000000e+00
    RHS       C0000851   0.000000000000e+00
    RHS       C0000852   0.000000000000e+00
    RHS       C0000853   9.000000000000e+00
    RHS       C0000854   0.000000000000e+00
    RHS       C0000855   0.000000000000e+00
    RHS       C0000856   9.000000000000e+00
    RHS       C0000857   0.000000000000e+00
    RHS       C0000858   0.000000000000e+00
    RHS       C0000859   0.000000000000e+00
    RHS       C0000860   9.000000000000e+00
    RHS       C0000861   0.000000000000e+00
    RHS       C0000862   0.000000000000e+00
    RHS       C0000863   0.000000000000e+00
    RHS       C0000864   9.000000000000e+00
    RHS       C0000865   0.000000000000e+00
    RHS       C0000866   0.000000000000e+00
    RHS       C0000867   0.000000000000e+00
    RHS       C0000868   9.000000000000e+00
    RHS       C0000869   0.000000000000e+00
    RHS       C0000870   0.000000000000e+00
    RHS       C0000871   0.000000000000e+00
    RHS       C0000872   9.000000000000e+00
    RHS       C0000873   0.000000000000e+00
    RHS       C0000874   0.000000000000e+00
    RHS       C0000875   0.000000000000e+00
    RHS       C0000876   9.000000000000e+00
    RHS       C0000877   0.000000000000e+00
    RHS       C0000878   0.000000000000e+00
    RHS       C0000879   0.000000000000e+00
    RHS       C0000880   9.000000000000e+00
    RHS       C0000881   0.000000000000e+00
    RHS       C0000882   0.000000000000e+00
    RHS       C0000883   0.000000000000e+00
    RHS       C0000884   0.000000000000e+00
    RHS       C0000885   0.000000000000e+00
    RHS       C0000886   0.000000000000e+00
    RHS       C0000887   0.000000000000e+00
    RHS       C0000888   0.000000000000e+00
    RHS       C0000889   0.000000000000e+00
    RHS       C0000890   0.000000000000e+00
    RHS       C0000891   0.000000000000e+00
    RHS       C0000892   0.000000000000e+00
    RHS       C0000893   0.000000000000e+00
    RHS       C0000894   0.000000000000e+00
    RHS       C0000895   0.000000000000e+00
    RHS       C0000896   0.000000000000e+00
    RHS       C0000897   0.000000000000e+00
    RHS       C0000898   0.000000000000e+00
    RHS       C0000899   9.000000000000e+00
    RHS       C0000900   0.000000000000e+00
    RHS       C0000901   0.000000000000e+00
    RHS       C0000902   0.000000000000e+00
    RHS       C0000903   9.000000000000e+00
    RHS       C0000904   0.000000000000e+00
    RHS       C0000905   0.000000000000e+00
    RHS       C0000906   0.000000000000e+00
    RHS       C0000907   9.000000000000e+00
    RHS       C0000908   0.000000000000e+00
    RHS       C0000909   0.000000000000e+00
    RHS       C0000910   0.000000000000e+00
    RHS       C0000911   9.000000000000e+00
    RHS       C0000912   0.000000000000e+00
    RHS       C0000913   0.000000000000e+00
    RHS       C0000914   0.000000000000e+00
    RHS       C0000915   9.000000000000e+00
    RHS       C0000916   0.000000000000e+00
    RHS       C0000917   0.000000000000e+00
    RHS       C0000918   0.000000000000e+00
    RHS       C0000919   9.000000000000e+00
    RHS       C0000920   0.000000000000e+00
    RHS       C0000921   0.000000000000e+00
    RHS       C0000922   0.000000000000e+00
    RHS       C0000923   9.000000000000e+00
    RHS       C0000924   0.000000000000e+00
    RHS       C0000925   0.000000000000e+00
    RHS       C0000926   0.000000000000e+00
    RHS       C0000927   0.000000000000e+00
    RHS       C0000928   0.000000000000e+00
    RHS       C0000929   0.000000000000e+00
    RHS       C0000930   0.000000000000e+00
    RHS       C0000931   0.000000000000e+00
    RHS       C0000932   0.000000000000e+00
    RHS       C0000933   0.000000000000e+00
    RHS       C0000934   0.000000000000e+00
    RHS       C0000935   0.000000000000e+00
    RHS       C0000936   0.000000000000e+00
    RHS       C0000937   0.000000000000e+00
    RHS       C0000938   0.000000000000e+00
    RHS       C0000939   0.000000000000e+00
    RHS       C0000940   0.000000000000e+00
    RHS       C0000941   0.000000000000e+00
    RHS       C0000942   9.000000000000e+00
    RHS       C0000943   0.000000000000e+00
    RHS       C0000944   0.000000000000e+00
    RHS       C0000945   0.000000000000e+00
    RHS       C0000946   9.000000000000e+00
    RHS       C0000947   0.000000000000e+00
    RHS       C0000948   0.000000000000e+00
    RHS       C0000949   0.000000000000e+00
    RHS       C0000950   9.000000000000e+00
    RHS       C0000951   0.000000000000e+00
    RHS       C0000952   0.000000000000e+00
    RHS       C0000953   0.000000000000e+00
    RHS       C0000954   9.000000000000e+00
    RHS       C0000955   0.000000000000e+00
    RHS       C0000956   0.000000000000e+00
    RHS       C0000957   0.000000000000e+00
    RHS       C0000958   9.000000000000e+00
    RHS       C0000959   0.000000000000e+00
    RHS       C0000960   0.000000000000e+00
    RHS       C0000961   0.000000000000e+00
    RHS       C0000962   9.000000000000e+00
    RHS       C0000963   0.000000000000e+00
    RHS       C0000964   0.000000000000e+00
    RHS       C0000965   0.000000000000e+00
    RHS       C0000966   9.000000000000e+00
    RHS       C0000967   0.000000000000e+00
    RHS       C0000968   0.000000000000e+00
    RHS       C0000969   0.000000000000e+00
    RHS       C0000970   0.000000000000e+00
    RHS       C0000971   0.000000000000e+00
    RHS       C0000972   0.000000000000e+00
    RHS       C0000973   0.000000000000e+00
    RHS       C0000974   0.000000000000e+00
    RHS       C0000975   0.000000000000e+00
    RHS       C0000976   0.000000000000e+00
    RHS       C0000977   0.000000000000e+00
    RHS       C0000978   0.000000000000e+00
    RHS       C0000979   0.000000000000e+00
    RHS       C0000980   0.000000000000e+00
    RHS       C0000981   0.000000000000e+00
    RHS       C0000982   0.000000000000e+00
    RHS       C0000983   0.000000000000e+00
    RHS       C0000984   0.000000000000e+00
    RHS       C0000985   9.000000000000e+00
    RHS       C0000986   0.000000000000e+00
    RHS       C0000987   0.000000000000e+00
    RHS       C0000988   0.000000000000e+00
    RHS       C0000989   9.000000000000e+00
    RHS       C0000990   0.000000000000e+00
    RHS       C0000991   0.000000000000e+00
    RHS       C0000992   0.000000000000e+00
    RHS       C0000993   9.000000000000e+00
    RHS       C0000994   0.000000000000e+00
    RHS       C0000995   0.000000000000e+00
    RHS       C0000996   0.000000000000e+00
    RHS       C0000997   9.000000000000e+00
    RHS       C0000998   0.000000000000e+00
    RHS       C0000999   0.000000000000e+00
    RHS       C0001000   0.000000000000e+00
    RHS       C0001001   9.000000000000e+00
    RHS       C0001002   0.000000000000e+00
    RHS       C0001003   0.000000000000e+00
    RHS       C0001004   0.000000000000e+00
    RHS       C0001005   9.000000000000e+00
    RHS       C0001006   0.000000000000e+00
    RHS       C0001007   0.000000000000e+00
    RHS       C0001008   0.000000000000e+00
    RHS       C0001009   9.000000000000e+00
    RHS       C0001010   0.000000000000e+00
    RHS       C0001011   0.000000000000e+00
    RHS       C0001012   0.000000000000e+00
    RHS       C0001013   0.000000000000e+00
    RHS       C0001014   0.000000000000e+00
    RHS       C0001015   0.000000000000e+00
    RHS       C0001016   0.000000000000e+00
    RHS       C0001017   0.000000000000e+00
    RHS       C0001018   0.000000000000e+00
    RHS       C0001019   0.000000000000e+00
    RHS       C0001020   0.000000000000e+00
    RHS       C0001021   0.000000000000e+00
    RHS       C0001022   0.000000000000e+00
    RHS       C0001023   0.000000000000e+00
    RHS       C0001024   0.000000000000e+00
    RHS       C0001025   0.000000000000e+00
    RHS       C0001026   0.000000000000e+00
    RHS       C0001027   0.000000000000e+00
    RHS       C0001028   9.000000000000e+00
    RHS       C0001029   0.000000000000e+00
    RHS       C0001030   0.000000000000e+00
    RHS       C0001031   0.000000000000e+00
    RHS       C0001032   9.000000000000e+00
    RHS       C0001033   0.000000000000e+00
    RHS       C0001034   0.000000000000e+00
    RHS       C0001035   0.000000000000e+00
    RHS       C0001036   9.000000000000e+00
    RHS       C0001037   0.000000000000e+00
    RHS       C0001038   0.000000000000e+00
    RHS       C0001039   0.000000000000e+00
    RHS       C0001040   9.000000000000e+00
    RHS       C0001041   0.000000000000e+00
    RHS       C0001042   0.000000000000e+00
    RHS       C0001043   0.000000000000e+00
    RHS       C0001044   9.000000000000e+00
    RHS       C0001045   0.000000000000e+00
    RHS       C0001046   0.000000000000e+00
    RHS       C0001047   0.000000000000e+00
    RHS       C0001048   9.000000000000e+00
    RHS       C0001049   0.000000000000e+00
    RHS       C0001050   0.000000000000e+00
    RHS       C0001051   0.000000000000e+00
    RHS       C0001052   9.000000000000e+00
    RHS       C0001053   0.000000000000e+00
    RHS       C0001054   0.000000000000e+00
    RHS       C0001055   0.000000000000e+00
    RHS       C0001056   0.000000000000e+00
    RHS       C0001057   0.000000000000e+00
    RHS       C0001058   0.000000000000e+00
    RHS       C0001059   0.000000000000e+00
    RHS       C0001060   0.000000000000e+00
    RHS       C0001061   0.000000000000e+00
    RHS       C0001062   0.000000000000e+00
    RHS       C0001063   0.000000000000e+00
    RHS       C0001064   0.000000000000e+00
    RHS       C0001065   0.000000000000e+00
    RHS       C0001066   0.000000000000e+00
    RHS       C0001067   0.000000000000e+00
    RHS       C0001068   0.000000000000e+00
    RHS       C0001069   0.000000000000e+00
    RHS       C0001070   0.000000000000e+00
    RHS       C0001071   9.000000000000e+00
    RHS       C0001072   0.000000000000e+00
    RHS       C0001073   0.000000000000e+00
    RHS       C0001074   0.000000000000e+00
    RHS       C0001075   9.000000000000e+00
    RHS       C0001076   0.000000000000e+00
    RHS       C0001077   0.000000000000e+00
    RHS       C0001078   0.000000000000e+00
    RHS       C0001079   9.000000000000e+00
    RHS       C0001080   0.000000000000e+00
    RHS       C0001081   0.000000000000e+00
    RHS       C0001082   0.000000000000e+00
    RHS       C0001083   9.000000000000e+00
    RHS       C0001084   0.000000000000e+00
    RHS       C0001085   0.000000000000e+00
    RHS       C0001086   0.000000000000e+00
    RHS       C0001087   9.000000000000e+00
    RHS       C0001088   0.000000000000e+00
    RHS       C0001089   0.000000000000e+00
    RHS       C0001090   0.000000000000e+00
    RHS       C0001091   9.000000000000e+00
    RHS       C0001092   0.000000000000e+00
    RHS       C0001093   0.000000000000e+00
    RHS       C0001094   0.000000000000e+00
    RHS       C0001095   9.000000000000e+00
    RHS       C0001096   0.000000000000e+00
    RHS       C0001097   0.000000000000e+00
    RHS       C0001098   0.000000000000e+00
    RHS       C0001099   0.000000000000e+00
    RHS       C0001100   0.000000000000e+00
    RHS       C0001101   0.000000000000e+00
    RHS       C0001102   0.000000000000e+00
    RHS       C0001103   0.000000000000e+00
    RHS       C0001104   0.000000000000e+00
    RHS       C0001105   0.000000000000e+00
    RHS       C0001106   0.000000000000e+00
    RHS       C0001107   0.000000000000e+00
    RHS       C0001108   0.000000000000e+00
    RHS       C0001109   0.000000000000e+00
    RHS       C0001110   0.000000000000e+00
    RHS       C0001111   0.000000000000e+00
    RHS       C0001112   0.000000000000e+00
    RHS       C0001113   0.000000000000e+00
    RHS       C0001114   9.000000000000e+00
    RHS       C0001115   0.000000000000e+00
    RHS       C0001116   0.000000000000e+00
    RHS       C0001117   0.000000000000e+00
    RHS       C0001118   9.000000000000e+00
    RHS       C0001119   0.000000000000e+00
    RHS       C0001120   0.000000000000e+00
    RHS       C0001121   0.000000000000e+00
    RHS       C0001122   9.000000000000e+00
    RHS       C0001123   0.000000000000e+00
    RHS       C0001124   0.000000000000e+00
    RHS       C0001125   0.000000000000e+00
    RHS       C0001126   9.000000000000e+00
    RHS       C0001127   0.000000000000e+00
    RHS       C0001128   0.000000000000e+00
    RHS       C0001129   0.000000000000e+00
    RHS       C0001130   9.000000000000e+00
    RHS       C0001131   0.000000000000e+00
    RHS       C0001132   0.000000000000e+00
    RHS       C0001133   0.000000000000e+00
    RHS       C0001134   9.000000000000e+00
    RHS       C0001135   0.000000000000e+00
    RHS       C0001136   0.000000000000e+00
    RHS       C0001137   0.000000000000e+00
    RHS       C0001138   9.000000000000e+00
    RHS       C0001139   0.000000000000e+00
    RHS       C0001140   0.000000000000e+00
    RHS       C0001141   0.000000000000e+00
    RHS       C0001142   0.000000000000e+00
    RHS       C0001143   0.000000000000e+00
    RHS       C0001144   0.000000000000e+00
    RHS       C0001145   0.000000000000e+00
    RHS       C0001146   0.000000000000e+00
    RHS       C0001147   0.000000000000e+00
    RHS       C0001148   0.000000000000e+00
    RHS       C0001149   0.000000000000e+00
    RHS       C0001150   0.000000000000e+00
    RHS       C0001151   0.000000000000e+00
    RHS       C0001152   0.000000000000e+00
    RHS       C0001153   0.000000000000e+00
    RHS       C0001154   0.000000000000e+00
    RHS       C0001155   0.000000000000e+00
    RHS       C0001156   0.000000000000e+00
    RHS       C0001157   9.000000000000e+00
    RHS       C0001158   0.000000000000e+00
    RHS       C0001159   0.000000000000e+00
    RHS       C0001160   0.000000000000e+00
    RHS       C0001161   9.000000000000e+00
    RHS       C0001162   0.000000000000e+00
    RHS       C0001163   0.000000000000e+00
    RHS       C0001164   0.000000000000e+00
    RHS       C0001165   9.000000000000e+00
    RHS       C0001166   0.000000000000e+00
    RHS       C0001167   0.000000000000e+00
    RHS       C0001168   0.000000000000e+00
    RHS       C0001169   9.000000000000e+00
    RHS       C0001170   0.000000000000e+00
    RHS       C0001171   0.000000000000e+00
    RHS       C0001172   0.000000000000e+00
    RHS       C0001173   9.000000000000e+00
    RHS       C0001174   0.000000000000e+00
    RHS       C0001175   0.000000000000e+00
    RHS       C0001176   0.000000000000e+00
    RHS       C0001177   9.000000000000e+00
    RHS       C0001178   0.000000000000e+00
    RHS       C0001179   0.000000000000e+00
    RHS       C0001180   0.000000000000e+00
    RHS       C0001181   9.000000000000e+00
    RHS       C0001182   0.000000000000e+00
    RHS       C0001183   0.000000000000e+00
    RHS       C0001184   0.000000000000e+00
    RHS       C0001185   0.000000000000e+00
    RHS       C0001186   0.000000000000e+00
    RHS       C0001187   0.000000000000e+00
    RHS       C0001188   0.000000000000e+00
    RHS       C0001189   0.000000000000e+00
    RHS       C0001190   0.000000000000e+00
    RHS       C0001191   0.000000000000e+00
    RHS       C0001192   0.000000000000e+00
    RHS       C0001193   0.000000000000e+00
    RHS       C0001194   0.000000000000e+00
    RHS       C0001195   0.000000000000e+00
    RHS       C0001196   0.000000000000e+00
    RHS       C0001197   0.000000000000e+00
    RHS       C0001198   0.000000000000e+00
    RHS       C0001199   0.000000000000e+00
    RHS       C0001200   9.000000000000e+00
    RHS       C0001201   0.000000000000e+00
    RHS       C0001202   0.000000000000e+00
    RHS       C0001203   0.000000000000e+00
    RHS       C0001204   9.000000000000e+00
    RHS       C0001205   0.000000000000e+00
    RHS       C0001206   0.000000000000e+00
    RHS       C0001207   0.000000000000e+00
    RHS       C0001208   9.000000000000e+00
    RHS       C0001209   0.000000000000e+00
    RHS       C0001210   0.000000000000e+00
    RHS       C0001211   0.000000000000e+00
    RHS       C0001212   9.000000000000e+00
    RHS       C0001213   0.000000000000e+00
    RHS       C0001214   0.000000000000e+00
    RHS       C0001215   0.000000000000e+00
    RHS       C0001216   9.000000000000e+00
    RHS       C0001217   0.000000000000e+00
    RHS       C0001218   0.000000000000e+00
    RHS       C0001219   0.000000000000e+00
    RHS       C0001220   9.000000000000e+00
    RHS       C0001221   0.000000000000e+00
    RHS       C0001222   0.000000000000e+00
    RHS       C0001223   0.000000000000e+00
    RHS       C0001224   9.000000000000e+00
    RHS       C0001225   0.000000000000e+00
    RHS       C0001226   0.000000000000e+00
    RHS       C0001227   0.000000000000e+00
    RHS       C0001228   0.000000000000e+00
    RHS       C0001229   0.000000000000e+00
    RHS       C0001230   0.000000000000e+00
    RHS       C0001231   0.000000000000e+00
    RHS       C0001232   0.000000000000e+00
    RHS       C0001233   0.000000000000e+00
    RHS       C0001234   0.000000000000e+00
    RHS       C0001235   0.000000000000e+00
    RHS       C0001236   0.000000000000e+00
    RHS       C0001237   0.000000000000e+00
    RHS       C0001238   0.000000000000e+00
    RHS       C0001239   0.000000000000e+00
    RHS       C0001240   0.000000000000e+00
    RHS       C0001241   0.000000000000e+00
    RHS       C0001242   0.000000000000e+00
    RHS       C0001243   9.000000000000e+00
    RHS       C0001244   0.000000000000e+00
    RHS       C0001245   0.000000000000e+00
    RHS       C0001246   0.000000000000e+00
    RHS       C0001247   9.000000000000e+00
    RHS       C0001248   0.000000000000e+00
    RHS       C0001249   0.000000000000e+00
    RHS       C0001250   0.000000000000e+00
    RHS       C0001251   9.000000000000e+00
    RHS       C0001252   0.000000000000e+00
    RHS       C0001253   0.000000000000e+00
    RHS       C0001254   0.000000000000e+00
    RHS       C0001255   9.000000000000e+00
    RHS       C0001256   0.000000000000e+00
    RHS       C0001257   0.000000000000e+00
    RHS       C0001258   0.000000000000e+00
    RHS       C0001259   9.000000000000e+00
    RHS       C0001260   0.000000000000e+00
    RHS       C0001261   0.000000000000e+00
    RHS       C0001262   0.000000000000e+00
    RHS       C0001263   9.000000000000e+00
    RHS       C0001264   0.000000000000e+00
    RHS       C0001265   0.000000000000e+00
    RHS       C0001266   0.000000000000e+00
    RHS       C0001267   9.000000000000e+00
    RHS       C0001268   0.000000000000e+00
    RHS       C0001269   0.000000000000e+00
    RHS       C0001270   0.000000000000e+00
    RHS       C0001271   0.000000000000e+00
    RHS       C0001272   0.000000000000e+00
    RHS       C0001273   0.000000000000e+00
    RHS       C0001274   0.000000000000e+00
    RHS       C0001275   0.000000000000e+00
    RHS       C0001276   0.000000000000e+00
    RHS       C0001277   0.000000000000e+00
    RHS       C0001278   0.000000000000e+00
    RHS       C0001279   0.000000000000e+00
    RHS       C0001280   0.000000000000e+00
    RHS       C0001281   0.000000000000e+00
    RHS       C0001282   0.000000000000e+00
    RHS       C0001283   0.000000000000e+00
    RHS       C0001284   0.000000000000e+00
    RHS       C0001285   0.000000000000e+00
    RHS       C0001286   9.000000000000e+00
    RHS       C0001287   0.000000000000e+00
    RHS       C0001288   0.000000000000e+00
    RHS       C0001289   0.000000000000e+00
    RHS       C0001290   9.000000000000e+00
    RHS       C0001291   0.000000000000e+00
    RHS       C0001292   0.000000000000e+00
    RHS       C0001293   0.000000000000e+00
    RHS       C0001294   9.000000000000e+00
    RHS       C0001295   0.000000000000e+00
    RHS       C0001296   0.000000000000e+00
    RHS       C0001297   0.000000000000e+00
    RHS       C0001298   9.000000000000e+00
    RHS       C0001299   0.000000000000e+00
    RHS       C0001300   0.000000000000e+00
    RHS       C0001301   0.000000000000e+00
    RHS       C0001302   9.000000000000e+00
    RHS       C0001303   0.000000000000e+00
    RHS       C0001304   0.000000000000e+00
    RHS       C0001305   0.000000000000e+00
    RHS       C0001306   9.000000000000e+00
    RHS       C0001307   0.000000000000e+00
    RHS       C0001308   0.000000000000e+00
    RHS       C0001309   0.000000000000e+00
    RHS       C0001310   9.000000000000e+00
    RHS       C0001311   0.000000000000e+00
    RHS       C0001312   0.000000000000e+00
    RHS       C0001313   0.000000000000e+00
    RHS       C0001314   0.000000000000e+00
    RHS       C0001315   0.000000000000e+00
    RHS       C0001316   0.000000000000e+00
    RHS       C0001317   0.000000000000e+00
    RHS       C0001318   0.000000000000e+00
    RHS       C0001319   0.000000000000e+00
    RHS       C0001320   0.000000000000e+00
    RHS       C0001321   0.000000000000e+00
    RHS       C0001322   0.000000000000e+00
    RHS       C0001323   0.000000000000e+00
    RHS       C0001324   0.000000000000e+00
    RHS       C0001325   0.000000000000e+00
    RHS       C0001326   0.000000000000e+00
    RHS       C0001327   0.000000000000e+00
    RHS       C0001328   0.000000000000e+00
    RHS       C0001329   9.000000000000e+00
    RHS       C0001330   0.000000000000e+00
    RHS       C0001331   0.000000000000e+00
    RHS       C0001332   0.000000000000e+00
    RHS       C0001333   9.000000000000e+00
    RHS       C0001334   0.000000000000e+00
    RHS       C0001335   0.000000000000e+00
    RHS       C0001336   0.000000000000e+00
    RHS       C0001337   9.000000000000e+00
    RHS       C0001338   0.000000000000e+00
    RHS       C0001339   0.000000000000e+00
    RHS       C0001340   0.000000000000e+00
    RHS       C0001341   9.000000000000e+00
    RHS       C0001342   0.000000000000e+00
    RHS       C0001343   0.000000000000e+00
    RHS       C0001344   0.000000000000e+00
    RHS       C0001345   9.000000000000e+00
    RHS       C0001346   0.000000000000e+00
    RHS       C0001347   0.000000000000e+00
    RHS       C0001348   0.000000000000e+00
    RHS       C0001349   9.000000000000e+00
    RHS       C0001350   0.000000000000e+00
    RHS       C0001351   0.000000000000e+00
    RHS       C0001352   0.000000000000e+00
    RHS       C0001353   9.000000000000e+00
    RHS       C0001354   0.000000000000e+00
    RHS       C0001355   0.000000000000e+00
    RHS       C0001356   0.000000000000e+00
    RHS       C0001357   0.000000000000e+00
    RHS       C0001358   0.000000000000e+00
    RHS       C0001359   0.000000000000e+00
    RHS       C0001360   0.000000000000e+00
    RHS       C0001361   0.000000000000e+00
    RHS       C0001362   0.000000000000e+00
    RHS       C0001363   0.000000000000e+00
    RHS       C0001364   0.000000000000e+00
    RHS       C0001365   0.000000000000e+00
    RHS       C0001366   0.000000000000e+00
    RHS       C0001367   0.000000000000e+00
    RHS       C0001368   0.000000000000e+00
    RHS       C0001369   0.000000000000e+00
    RHS       C0001370   0.000000000000e+00
    RHS       C0001371   0.000000000000e+00
    RHS       C0001372   9.000000000000e+00
    RHS       C0001373   0.000000000000e+00
    RHS       C0001374   0.000000000000e+00
    RHS       C0001375   0.000000000000e+00
    RHS       C0001376   9.000000000000e+00
    RHS       C0001377   0.000000000000e+00
    RHS       C0001378   0.000000000000e+00
    RHS       C0001379   0.000000000000e+00
    RHS       C0001380   9.000000000000e+00
    RHS       C0001381   0.000000000000e+00
    RHS       C0001382   0.000000000000e+00
    RHS       C0001383   0.000000000000e+00
    RHS       C0001384   9.000000000000e+00
    RHS       C0001385   0.000000000000e+00
    RHS       C0001386   0.000000000000e+00
    RHS       C0001387   0.000000000000e+00
    RHS       C0001388   9.000000000000e+00
    RHS       C0001389   0.000000000000e+00
    RHS       C0001390   0.000000000000e+00
    RHS       C0001391   0.000000000000e+00
    RHS       C0001392   9.000000000000e+00
    RHS       C0001393   0.000000000000e+00
    RHS       C0001394   0.000000000000e+00
    RHS       C0001395   0.000000000000e+00
    RHS       C0001396   9.000000000000e+00
    RHS       C0001397   0.000000000000e+00
    RHS       C0001398   0.000000000000e+00
    RHS       C0001399   0.000000000000e+00
    RHS       C0001400   0.000000000000e+00
    RHS       C0001401   0.000000000000e+00
    RHS       C0001402   0.000000000000e+00
    RHS       C0001403   0.000000000000e+00
    RHS       C0001404   0.000000000000e+00
    RHS       C0001405   0.000000000000e+00
    RHS       C0001406   0.000000000000e+00
    RHS       C0001407   0.000000000000e+00
    RHS       C0001408   0.000000000000e+00
    RHS       C0001409   0.000000000000e+00
    RHS       C0001410   0.000000000000e+00
    RHS       C0001411   0.000000000000e+00
    RHS       C0001412   0.000000000000e+00
    RHS       C0001413   0.000000000000e+00
    RHS       C0001414   0.000000000000e+00
    RHS       C0001415   9.000000000000e+00
    RHS       C0001416   0.000000000000e+00
    RHS       C0001417   0.000000000000e+00
    RHS       C0001418   0.000000000000e+00
    RHS       C0001419   9.000000000000e+00
    RHS       C0001420   0.000000000000e+00
    RHS       C0001421   0.000000000000e+00
    RHS       C0001422   0.000000000000e+00
    RHS       C0001423   9.000000000000e+00
    RHS       C0001424   0.000000000000e+00
    RHS       C0001425   0.000000000000e+00
    RHS       C0001426   0.000000000000e+00
    RHS       C0001427   9.000000000000e+00
    RHS       C0001428   0.000000000000e+00
    RHS       C0001429   0.000000000000e+00
    RHS       C0001430   0.000000000000e+00
    RHS       C0001431   9.000000000000e+00
    RHS       C0001432   0.000000000000e+00
    RHS       C0001433   0.000000000000e+00
    RHS       C0001434   0.000000000000e+00
    RHS       C0001435   9.000000000000e+00
    RHS       C0001436   0.000000000000e+00
    RHS       C0001437   0.000000000000e+00
    RHS       C0001438   0.000000000000e+00
    RHS       C0001439   9.000000000000e+00
    RHS       C0001440   0.000000000000e+00
    RHS       C0001441   0.000000000000e+00
    RHS       C0001442   0.000000000000e+00
    RHS       C0001443   0.000000000000e+00
    RHS       C0001444   0.000000000000e+00
    RHS       C0001445   0.000000000000e+00
    RHS       C0001446   0.000000000000e+00
    RHS       C0001447   0.000000000000e+00
    RHS       C0001448   0.000000000000e+00
    RHS       C0001449   0.000000000000e+00
    RHS       C0001450   0.000000000000e+00
    RHS       C0001451   0.000000000000e+00
    RHS       C0001452   0.000000000000e+00
    RHS       C0001453   0.000000000000e+00
    RHS       C0001454   0.000000000000e+00
    RHS       C0001455   0.000000000000e+00
    RHS       C0001456   0.000000000000e+00
    RHS       C0001457   0.000000000000e+00
    RHS       C0001458   9.000000000000e+00
    RHS       C0001459   0.000000000000e+00
    RHS       C0001460   0.000000000000e+00
    RHS       C0001461   0.000000000000e+00
    RHS       C0001462   9.000000000000e+00
    RHS       C0001463   0.000000000000e+00
    RHS       C0001464   0.000000000000e+00
    RHS       C0001465   0.000000000000e+00
    RHS       C0001466   9.000000000000e+00
    RHS       C0001467   0.000000000000e+00
    RHS       C0001468   0.000000000000e+00
    RHS       C0001469   0.000000000000e+00
    RHS       C0001470   9.000000000000e+00
    RHS       C0001471   0.000000000000e+00
    RHS       C0001472   0.000000000000e+00
    RHS       C0001473   0.000000000000e+00
    RHS       C0001474   9.000000000000e+00
    RHS       C0001475   0.000000000000e+00
    RHS       C0001476   0.000000000000e+00
    RHS       C0001477   0.000000000000e+00
    RHS       C0001478   9.000000000000e+00
    RHS       C0001479   0.000000000000e+00
    RHS       C0001480   0.000000000000e+00
    RHS       C0001481   0.000000000000e+00
    RHS       C0001482   9.000000000000e+00
    RHS       C0001483   0.000000000000e+00
    RHS       C0001484   0.000000000000e+00
    RHS       C0001485   0.000000000000e+00
    RHS       C0001486   0.000000000000e+00
    RHS       C0001487   0.000000000000e+00
    RHS       C0001488   0.000000000000e+00
    RHS       C0001489   0.000000000000e+00
    RHS       C0001490   0.000000000000e+00
    RHS       C0001491   0.000000000000e+00
    RHS       C0001492   0.000000000000e+00
    RHS       C0001493   0.000000000000e+00
    RHS       C0001494   0.000000000000e+00
    RHS       C0001495   0.000000000000e+00
    RHS       C0001496   0.000000000000e+00
    RHS       C0001497   0.000000000000e+00
    RHS       C0001498   0.000000000000e+00
    RHS       C0001499   0.000000000000e+00
    RHS       C0001500   0.000000000000e+00
    RHS       C0001501   9.000000000000e+00
    RHS       C0001502   0.000000000000e+00
    RHS       C0001503   0.000000000000e+00
    RHS       C0001504   0.000000000000e+00
    RHS       C0001505   9.000000000000e+00
    RHS       C0001506   0.000000000000e+00
    RHS       C0001507   0.000000000000e+00
    RHS       C0001508   0.000000000000e+00
    RHS       C0001509   9.000000000000e+00
    RHS       C0001510   0.000000000000e+00
    RHS       C0001511   0.000000000000e+00
    RHS       C0001512   0.000000000000e+00
    RHS       C0001513   9.000000000000e+00
    RHS       C0001514   0.000000000000e+00
    RHS       C0001515   0.000000000000e+00
    RHS       C0001516   0.000000000000e+00
    RHS       C0001517   9.000000000000e+00
    RHS       C0001518   0.000000000000e+00
    RHS       C0001519   0.000000000000e+00
    RHS       C0001520   0.000000000000e+00
    RHS       C0001521   9.000000000000e+00
    RHS       C0001522   0.000000000000e+00
    RHS       C0001523   0.000000000000e+00
    RHS       C0001524   0.000000000000e+00
    RHS       C0001525   9.000000000000e+00
    RHS       C0001526   0.000000000000e+00
    RHS       C0001527   0.000000000000e+00
    RHS       C0001528   0.000000000000e+00
    RHS       C0001529   0.000000000000e+00
    RHS       C0001530   0.000000000000e+00
    RHS       C0001531   0.000000000000e+00
    RHS       C0001532   0.000000000000e+00
    RHS       C0001533   0.000000000000e+00
    RHS       C0001534   0.000000000000e+00
    RHS       C0001535   0.000000000000e+00
    RHS       C0001536   0.000000000000e+00
    RHS       C0001537   0.000000000000e+00
    RHS       C0001538   0.000000000000e+00
    RHS       C0001539   0.000000000000e+00
    RHS       C0001540   0.000000000000e+00
    RHS       C0001541   0.000000000000e+00
    RHS       C0001542   0.000000000000e+00
    RHS       C0001543   0.000000000000e+00
    RHS       C0001544   9.000000000000e+00
    RHS       C0001545   0.000000000000e+00
    RHS       C0001546   0.000000000000e+00
    RHS       C0001547   0.000000000000e+00
    RHS       C0001548   9.000000000000e+00
    RHS       C0001549   0.000000000000e+00
    RHS       C0001550   0.000000000000e+00
    RHS       C0001551   0.000000000000e+00
    RHS       C0001552   9.000000000000e+00
    RHS       C0001553   0.000000000000e+00
    RHS       C0001554   0.000000000000e+00
    RHS       C0001555   0.000000000000e+00
    RHS       C0001556   9.000000000000e+00
    RHS       C0001557   0.000000000000e+00
    RHS       C0001558   0.000000000000e+00
    RHS       C0001559   0.000000000000e+00
    RHS       C0001560   9.000000000000e+00
    RHS       C0001561   0.000000000000e+00
    RHS       C0001562   0.000000000000e+00
    RHS       C0001563   0.000000000000e+00
    RHS       C0001564   9.000000000000e+00
    RHS       C0001565   0.000000000000e+00
    RHS       C0001566   0.000000000000e+00
    RHS       C0001567   0.000000000000e+00
    RHS       C0001568   9.000000000000e+00
    RHS       C0001569   0.000000000000e+00
    RHS       C0001570   0.000000000000e+00
    RHS       C0001571   0.000000000000e+00
    RHS       C0001572   0.000000000000e+00
    RHS       C0001573   0.000000000000e+00
    RHS       C0001574   0.000000000000e+00
    RHS       C0001575   0.000000000000e+00
    RHS       C0001576   0.000000000000e+00
    RHS       C0001577   0.000000000000e+00
    RHS       C0001578   0.000000000000e+00
    RHS       C0001579   0.000000000000e+00
    RHS       C0001580   0.000000000000e+00
    RHS       C0001581   0.000000000000e+00
    RHS       C0001582   0.000000000000e+00
    RHS       C0001583   0.000000000000e+00
    RHS       C0001584   0.000000000000e+00
    RHS       C0001585   0.000000000000e+00
    RHS       C0001586   0.000000000000e+00
    RHS       C0001587   9.000000000000e+00
    RHS       C0001588   0.000000000000e+00
    RHS       C0001589   0.000000000000e+00
    RHS       C0001590   0.000000000000e+00
    RHS       C0001591   9.000000000000e+00
    RHS       C0001592   0.000000000000e+00
    RHS       C0001593   0.000000000000e+00
    RHS       C0001594   0.000000000000e+00
    RHS       C0001595   9.000000000000e+00
    RHS       C0001596   0.000000000000e+00
    RHS       C0001597   0.000000000000e+00
    RHS       C0001598   0.000000000000e+00
    RHS       C0001599   9.000000000000e+00
    RHS       C0001600   0.000000000000e+00
    RHS       C0001601   0.000000000000e+00
    RHS       C0001602   0.000000000000e+00
    RHS       C0001603   9.000000000000e+00
    RHS       C0001604   0.000000000000e+00
    RHS       C0001605   0.000000000000e+00
    RHS       C0001606   0.000000000000e+00
    RHS       C0001607   9.000000000000e+00
    RHS       C0001608   0.000000000000e+00
    RHS       C0001609   0.000000000000e+00
    RHS       C0001610   0.000000000000e+00
    RHS       C0001611   9.000000000000e+00
    RHS       C0001612   0.000000000000e+00
    RHS       C0001613   0.000000000000e+00
    RHS       C0001614   0.000000000000e+00
    RHS       C0001615   0.000000000000e+00
    RHS       C0001616   0.000000000000e+00
    RHS       C0001617   0.000000000000e+00
    RHS       C0001618   0.000000000000e+00
    RHS       C0001619   0.000000000000e+00
    RHS       C0001620   0.000000000000e+00
    RHS       C0001621   0.000000000000e+00
    RHS       C0001622   0.000000000000e+00
    RHS       C0001623   0.000000000000e+00
    RHS       C0001624   0.000000000000e+00
    RHS       C0001625   0.000000000000e+00
    RHS       C0001626   0.000000000000e+00
    RHS       C0001627   0.000000000000e+00
    RHS       C0001628   0.000000000000e+00
    RHS       C0001629   0.000000000000e+00
    RHS       C0001630   9.000000000000e+00
    RHS       C0001631   0.000000000000e+00
    RHS       C0001632   0.000000000000e+00
    RHS       C0001633   0.000000000000e+00
    RHS       C0001634   9.000000000000e+00
    RHS       C0001635   0.000000000000e+00
    RHS       C0001636   0.000000000000e+00
    RHS       C0001637   0.000000000000e+00
    RHS       C0001638   9.000000000000e+00
    RHS       C0001639   0.000000000000e+00
    RHS       C0001640   0.000000000000e+00
    RHS       C0001641   0.000000000000e+00
    RHS       C0001642   9.000000000000e+00
    RHS       C0001643   0.000000000000e+00
    RHS       C0001644   0.000000000000e+00
    RHS       C0001645   0.000000000000e+00
    RHS       C0001646   9.000000000000e+00
    RHS       C0001647   0.000000000000e+00
    RHS       C0001648   0.000000000000e+00
    RHS       C0001649   0.000000000000e+00
    RHS       C0001650   9.000000000000e+00
    RHS       C0001651   0.000000000000e+00
    RHS       C0001652   0.000000000000e+00
    RHS       C0001653   0.000000000000e+00
    RHS       C0001654   9.000000000000e+00
    RHS       C0001655   0.000000000000e+00
    RHS       C0001656   0.000000000000e+00
    RHS       C0001657   0.000000000000e+00
    RHS       C0001658   0.000000000000e+00
    RHS       C0001659   0.000000000000e+00
    RHS       C0001660   0.000000000000e+00
    RHS       C0001661   0.000000000000e+00
    RHS       C0001662   0.000000000000e+00
    RHS       C0001663   0.000000000000e+00
    RHS       C0001664   0.000000000000e+00
    RHS       C0001665   0.000000000000e+00
    RHS       C0001666   0.000000000000e+00
    RHS       C0001667   0.000000000000e+00
    RHS       C0001668   0.000000000000e+00
    RHS       C0001669   0.000000000000e+00
    RHS       C0001670   0.000000000000e+00
    RHS       C0001671   0.000000000000e+00
    RHS       C0001672   0.000000000000e+00
    RHS       C0001673   9.000000000000e+00
    RHS       C0001674   0.000000000000e+00
    RHS       C0001675   0.000000000000e+00
    RHS       C0001676   0.000000000000e+00
    RHS       C0001677   9.000000000000e+00
    RHS       C0001678   0.000000000000e+00
    RHS       C0001679   0.000000000000e+00
    RHS       C0001680   0.000000000000e+00
    RHS       C0001681   9.000000000000e+00
    RHS       C0001682   0.000000000000e+00
    RHS       C0001683   0.000000000000e+00
    RHS       C0001684   0.000000000000e+00
    RHS       C0001685   9.000000000000e+00
    RHS       C0001686   0.000000000000e+00
    RHS       C0001687   0.000000000000e+00
    RHS       C0001688   0.000000000000e+00
    RHS       C0001689   9.000000000000e+00
    RHS       C0001690   0.000000000000e+00
    RHS       C0001691   0.000000000000e+00
    RHS       C0001692   0.000000000000e+00
    RHS       C0001693   9.000000000000e+00
    RHS       C0001694   0.000000000000e+00
    RHS       C0001695   0.000000000000e+00
    RHS       C0001696   0.000000000000e+00
    RHS       C0001697   9.000000000000e+00
    RHS       C0001698   0.000000000000e+00
    RHS       C0001699   0.000000000000e+00
    RHS       C0001700   0.000000000000e+00
    RHS       C0001701   0.000000000000e+00
    RHS       C0001702   0.000000000000e+00
    RHS       C0001703   0.000000000000e+00
    RHS       C0001704   0.000000000000e+00
    RHS       C0001705   0.000000000000e+00
    RHS       C0001706   0.000000000000e+00
    RHS       C0001707   0.000000000000e+00
    RHS       C0001708   0.000000000000e+00
    RHS       C0001709   0.000000000000e+00
    RHS       C0001710   0.000000000000e+00
    RHS       C0001711   0.000000000000e+00
    RHS       C0001712   0.000000000000e+00
    RHS       C0001713   0.000000000000e+00
    RHS       C0001714   0.000000000000e+00
    RHS       C0001715   0.000000000000e+00
    RHS       C0001716   9.000000000000e+00
    RHS       C0001717   0.000000000000e+00
    RHS       C0001718   0.000000000000e+00
    RHS       C0001719   0.000000000000e+00
    RHS       C0001720   9.000000000000e+00
    RHS       C0001721   0.000000000000e+00
    RHS       C0001722   0.000000000000e+00
    RHS       C0001723   0.000000000000e+00
    RHS       C0001724   9.000000000000e+00
    RHS       C0001725   0.000000000000e+00
    RHS       C0001726   0.000000000000e+00
    RHS       C0001727   0.000000000000e+00
    RHS       C0001728   9.000000000000e+00
    RHS       C0001729   0.000000000000e+00
    RHS       C0001730   0.000000000000e+00
    RHS       C0001731   0.000000000000e+00
    RHS       C0001732   9.000000000000e+00
    RHS       C0001733   0.000000000000e+00
    RHS       C0001734   0.000000000000e+00
    RHS       C0001735   0.000000000000e+00
    RHS       C0001736   9.000000000000e+00
    RHS       C0001737   0.000000000000e+00
    RHS       C0001738   0.000000000000e+00
    RHS       C0001739   0.000000000000e+00
    RHS       C0001740   9.000000000000e+00
    RHS       C0001741   0.000000000000e+00
    RHS       C0001742   0.000000000000e+00
    RHS       C0001743   0.000000000000e+00
    RHS       C0001744   0.000000000000e+00
    RHS       C0001745   0.000000000000e+00
    RHS       C0001746   0.000000000000e+00
    RHS       C0001747   0.000000000000e+00
    RHS       C0001748   0.000000000000e+00
    RHS       C0001749   0.000000000000e+00
    RHS       C0001750   0.000000000000e+00
    RHS       C0001751   0.000000000000e+00
    RHS       C0001752   0.000000000000e+00
    RHS       C0001753   0.000000000000e+00
    RHS       C0001754   0.000000000000e+00
    RHS       C0001755   0.000000000000e+00
    RHS       C0001756   0.000000000000e+00
    RHS       C0001757   0.000000000000e+00
    RHS       C0001758   0.000000000000e+00
    RHS       C0001759   9.000000000000e+00
    RHS       C0001760   0.000000000000e+00
    RHS       C0001761   0.000000000000e+00
    RHS       C0001762   0.000000000000e+00
    RHS       C0001763   9.000000000000e+00
    RHS       C0001764   0.000000000000e+00
    RHS       C0001765   0.000000000000e+00
    RHS       C0001766   0.000000000000e+00
    RHS       C0001767   9.000000000000e+00
    RHS       C0001768   0.000000000000e+00
    RHS       C0001769   0.000000000000e+00
    RHS       C0001770   0.000000000000e+00
    RHS       C0001771   9.000000000000e+00
    RHS       C0001772   0.000000000000e+00
    RHS       C0001773   0.000000000000e+00
    RHS       C0001774   0.000000000000e+00
    RHS       C0001775   9.000000000000e+00
    RHS       C0001776   0.000000000000e+00
    RHS       C0001777   0.000000000000e+00
    RHS       C0001778   0.000000000000e+00
    RHS       C0001779   9.000000000000e+00
    RHS       C0001780   0.000000000000e+00
    RHS       C0001781   0.000000000000e+00
    RHS       C0001782   0.000000000000e+00
    RHS       C0001783   9.000000000000e+00
    RHS       C0001784   0.000000000000e+00
    RHS       C0001785   0.000000000000e+00
    RHS       C0001786   0.000000000000e+00
    RHS       C0001787   0.000000000000e+00
    RHS       C0001788   0.000000000000e+00
    RHS       C0001789   0.000000000000e+00
    RHS       C0001790   0.000000000000e+00
    RHS       C0001791   0.000000000000e+00
    RHS       C0001792   0.000000000000e+00
    RHS       C0001793   0.000000000000e+00
    RHS       C0001794   0.000000000000e+00
    RHS       C0001795   0.000000000000e+00
    RHS       C0001796   0.000000000000e+00
    RHS       C0001797   0.000000000000e+00
    RHS       C0001798   0.000000000000e+00
    RHS       C0001799   0.000000000000e+00
    RHS       C0001800   0.000000000000e+00
    RHS       C0001801   0.000000000000e+00
    RHS       C0001802   9.000000000000e+00
    RHS       C0001803   0.000000000000e+00
    RHS       C0001804   0.000000000000e+00
    RHS       C0001805   0.000000000000e+00
    RHS       C0001806   9.000000000000e+00
    RHS       C0001807   0.000000000000e+00
    RHS       C0001808   0.000000000000e+00
    RHS       C0001809   0.000000000000e+00
    RHS       C0001810   9.000000000000e+00
    RHS       C0001811   0.000000000000e+00
    RHS       C0001812   0.000000000000e+00
    RHS       C0001813   0.000000000000e+00
    RHS       C0001814   9.000000000000e+00
    RHS       C0001815   0.000000000000e+00
    RHS       C0001816   0.000000000000e+00
    RHS       C0001817   0.000000000000e+00
    RHS       C0001818   9.000000000000e+00
    RHS       C0001819   0.000000000000e+00
    RHS       C0001820   0.000000000000e+00
    RHS       C0001821   0.000000000000e+00
    RHS       C0001822   9.000000000000e+00
    RHS       C0001823   0.000000000000e+00
    RHS       C0001824   0.000000000000e+00
    RHS       C0001825   0.000000000000e+00
    RHS       C0001826   9.000000000000e+00
    RHS       C0001827   0.000000000000e+00
    RHS       C0001828   0.000000000000e+00
    RHS       C0001829   0.000000000000e+00
    RHS       C0001830   0.000000000000e+00
    RHS       C0001831   0.000000000000e+00
    RHS       C0001832   0.000000000000e+00
    RHS       C0001833   0.000000000000e+00
    RHS       C0001834   0.000000000000e+00
    RHS       C0001835   0.000000000000e+00
    RHS       C0001836   0.000000000000e+00
    RHS       C0001837   0.000000000000e+00
    RHS       C0001838   0.000000000000e+00
    RHS       C0001839   0.000000000000e+00
    RHS       C0001840   0.000000000000e+00
    RHS       C0001841   0.000000000000e+00
    RHS       C0001842   0.000000000000e+00
    RHS       C0001843   0.000000000000e+00
    RHS       C0001844   0.000000000000e+00
    RHS       C0001845   9.000000000000e+00
    RHS       C0001846   0.000000000000e+00
    RHS       C0001847   0.000000000000e+00
    RHS       C0001848   0.000000000000e+00
    RHS       C0001849   9.000000000000e+00
    RHS       C0001850   0.000000000000e+00
    RHS       C0001851   0.000000000000e+00
    RHS       C0001852   0.000000000000e+00
    RHS       C0001853   9.000000000000e+00
    RHS       C0001854   0.000000000000e+00
    RHS       C0001855   0.000000000000e+00
    RHS       C0001856   0.000000000000e+00
    RHS       C0001857   9.000000000000e+00
    RHS       C0001858   0.000000000000e+00
    RHS       C0001859   0.000000000000e+00
    RHS       C0001860   0.000000000000e+00
    RHS       C0001861   9.000000000000e+00
    RHS       C0001862   0.000000000000e+00
    RHS       C0001863   0.000000000000e+00
    RHS       C0001864   0.000000000000e+00
    RHS       C0001865   9.000000000000e+00
    RHS       C0001866   0.000000000000e+00
    RHS       C0001867   0.000000000000e+00
    RHS       C0001868   0.000000000000e+00
    RHS       C0001869   9.000000000000e+00
    RHS       C0001870   0.000000000000e+00
    RHS       C0001871   0.000000000000e+00
    RHS       C0001872   0.000000000000e+00
    RHS       C0001873   0.000000000000e+00
    RHS       C0001874   0.000000000000e+00
    RHS       C0001875   0.000000000000e+00
    RHS       C0001876   0.000000000000e+00
    RHS       C0001877   0.000000000000e+00
    RHS       C0001878   0.000000000000e+00
    RHS       C0001879   0.000000000000e+00
    RHS       C0001880   0.000000000000e+00
    RHS       C0001881   0.000000000000e+00
    RHS       C0001882   0.000000000000e+00
    RHS       C0001883   0.000000000000e+00
    RHS       C0001884   0.000000000000e+00
    RHS       C0001885   0.000000000000e+00
    RHS       C0001886   0.000000000000e+00
    RHS       C0001887   0.000000000000e+00
    RHS       C0001888   9.000000000000e+00
    RHS       C0001889   0.000000000000e+00
    RHS       C0001890   0.000000000000e+00
    RHS       C0001891   0.000000000000e+00
    RHS       C0001892   9.000000000000e+00
    RHS       C0001893   0.000000000000e+00
    RHS       C0001894   0.000000000000e+00
    RHS       C0001895   0.000000000000e+00
    RHS       C0001896   9.000000000000e+00
    RHS       C0001897   0.000000000000e+00
    RHS       C0001898   0.000000000000e+00
    RHS       C0001899   0.000000000000e+00
    RHS       C0001900   9.000000000000e+00
    RHS       C0001901   0.000000000000e+00
    RHS       C0001902   0.000000000000e+00
    RHS       C0001903   0.000000000000e+00
    RHS       C0001904   9.000000000000e+00
    RHS       C0001905   0.000000000000e+00
    RHS       C0001906   0.000000000000e+00
    RHS       C0001907   0.000000000000e+00
    RHS       C0001908   9.000000000000e+00
    RHS       C0001909   0.000000000000e+00
    RHS       C0001910   0.000000000000e+00
    RHS       C0001911   0.000000000000e+00
    RHS       C0001912   9.000000000000e+00
    RHS       C0001913   0.000000000000e+00
    RHS       C0001914   0.000000000000e+00
    RHS       C0001915   0.000000000000e+00
    RHS       C0001916   0.000000000000e+00
    RHS       C0001917   0.000000000000e+00
    RHS       C0001918   0.000000000000e+00
    RHS       C0001919   0.000000000000e+00
    RHS       C0001920   0.000000000000e+00
    RHS       C0001921   0.000000000000e+00
    RHS       C0001922   0.000000000000e+00
    RHS       C0001923   0.000000000000e+00
    RHS       C0001924   0.000000000000e+00
    RHS       C0001925   0.000000000000e+00
    RHS       C0001926   0.000000000000e+00
    RHS       C0001927   0.000000000000e+00
    RHS       C0001928   0.000000000000e+00
    RHS       C0001929   0.000000000000e+00
    RHS       C0001930   0.000000000000e+00
    RHS       C0001931   9.000000000000e+00
    RHS       C0001932   0.000000000000e+00
    RHS       C0001933   0.000000000000e+00
    RHS       C0001934   0.000000000000e+00
    RHS       C0001935   9.000000000000e+00
    RHS       C0001936   0.000000000000e+00
    RHS       C0001937   0.000000000000e+00
    RHS       C0001938   0.000000000000e+00
    RHS       C0001939   9.000000000000e+00
    RHS       C0001940   0.000000000000e+00
    RHS       C0001941   0.000000000000e+00
    RHS       C0001942   0.000000000000e+00
    RHS       C0001943   9.000000000000e+00
    RHS       C0001944   0.000000000000e+00
    RHS       C0001945   0.000000000000e+00
    RHS       C0001946   0.000000000000e+00
    RHS       C0001947   9.000000000000e+00
    RHS       C0001948   0.000000000000e+00
    RHS       C0001949   0.000000000000e+00
    RHS       C0001950   0.000000000000e+00
    RHS       C0001951   9.000000000000e+00
    RHS       C0001952   0.000000000000e+00
    RHS       C0001953   0.000000000000e+00
    RHS       C0001954   0.000000000000e+00
    RHS       C0001955   9.000000000000e+00
    RHS       C0001956   0.000000000000e+00
    RHS       C0001957   0.000000000000e+00
    RHS       C0001958   0.000000000000e+00
    RHS       C0001959   0.000000000000e+00
    RHS       C0001960   0.000000000000e+00
    RHS       C0001961   0.000000000000e+00
    RHS       C0001962   0.000000000000e+00
    RHS       C0001963   0.000000000000e+00
    RHS       C0001964   0.000000000000e+00
    RHS       C0001965   0.000000000000e+00
    RHS       C0001966   0.000000000000e+00
    RHS       C0001967   0.000000000000e+00
    RHS       C0001968   0.000000000000e+00
    RHS       C0001969   0.000000000000e+00
    RHS       C0001970   0.000000000000e+00
    RHS       C0001971   0.000000000000e+00
    RHS       C0001972   0.000000000000e+00
    RHS       C0001973   0.000000000000e+00
    RHS       C0001974   9.000000000000e+00
    RHS       C0001975   0.000000000000e+00
    RHS       C0001976   0.000000000000e+00
    RHS       C0001977   0.000000000000e+00
    RHS       C0001978   9.000000000000e+00
    RHS       C0001979   0.000000000000e+00
    RHS       C0001980   0.000000000000e+00
    RHS       C0001981   0.000000000000e+00
    RHS       C0001982   9.000000000000e+00
    RHS       C0001983   0.000000000000e+00
    RHS       C0001984   0.000000000000e+00
    RHS       C0001985   0.000000000000e+00
    RHS       C0001986   9.000000000000e+00
    RHS       C0001987   0.000000000000e+00
    RHS       C0001988   0.000000000000e+00
    RHS       C0001989   0.000000000000e+00
    RHS       C0001990   9.000000000000e+00
    RHS       C0001991   0.000000000000e+00
    RHS       C0001992   0.000000000000e+00
    RHS       C0001993   0.000000000000e+00
    RHS       C0001994   9.000000000000e+00
    RHS       C0001995   0.000000000000e+00
    RHS       C0001996   0.000000000000e+00
    RHS       C0001997   0.000000000000e+00
    RHS       C0001998   9.000000000000e+00
    RHS       C0001999   0.000000000000e+00
    RHS       C0002000   0.000000000000e+00
    RHS       C0002001   0.000000000000e+00
    RHS       C0002002   0.000000000000e+00
    RHS       C0002003   0.000000000000e+00
    RHS       C0002004   0.000000000000e+00
    RHS       C0002005   0.000000000000e+00
    RHS       C0002006   0.000000000000e+00
    RHS       C0002007   0.000000000000e+00
    RHS       C0002008   0.000000000000e+00
    RHS       C0002009   0.000000000000e+00
    RHS       C0002010   0.000000000000e+00
    RHS       C0002011   0.000000000000e+00
    RHS       C0002012   0.000000000000e+00
    RHS       C0002013   0.000000000000e+00
    RHS       C0002014   0.000000000000e+00
    RHS       C0002015   0.000000000000e+00
    RHS       C0002016   0.000000000000e+00
    RHS       C0002017   9.000000000000e+00
    RHS       C0002018   0.000000000000e+00
    RHS       C0002019   0.000000000000e+00
    RHS       C0002020   0.000000000000e+00
    RHS       C0002021   9.000000000000e+00
    RHS       C0002022   0.000000000000e+00
    RHS       C0002023   0.000000000000e+00
    RHS       C0002024   0.000000000000e+00
    RHS       C0002025   9.000000000000e+00
    RHS       C0002026   0.000000000000e+00
    RHS       C0002027   0.000000000000e+00
    RHS       C0002028   0.000000000000e+00
    RHS       C0002029   9.000000000000e+00
    RHS       C0002030   0.000000000000e+00
    RHS       C0002031   0.000000000000e+00
    RHS       C0002032   0.000000000000e+00
    RHS       C0002033   9.000000000000e+00
    RHS       C0002034   0.000000000000e+00
    RHS       C0002035   0.000000000000e+00
    RHS       C0002036   0.000000000000e+00
    RHS       C0002037   9.000000000000e+00
    RHS       C0002038   0.000000000000e+00
    RHS       C0002039   0.000000000000e+00
    RHS       C0002040   0.000000000000e+00
    RHS       C0002041   9.000000000000e+00
    RHS       C0002042   0.000000000000e+00
    RHS       C0002043   0.000000000000e+00
    RHS       C0002044   0.000000000000e+00
    RHS       C0002045   0.000000000000e+00
    RHS       C0002046   0.000000000000e+00
    RHS       C0002047   0.000000000000e+00
    RHS       C0002048   0.000000000000e+00
    RHS       C0002049   0.000000000000e+00
    RHS       C0002050   0.000000000000e+00
    RHS       C0002051   0.000000000000e+00
    RHS       C0002052   0.000000000000e+00
    RHS       C0002053   0.000000000000e+00
    RHS       C0002054   0.000000000000e+00
    RHS       C0002055   0.000000000000e+00
    RHS       C0002056   0.000000000000e+00
    RHS       C0002057   0.000000000000e+00
    RHS       C0002058   0.000000000000e+00
    RHS       C0002059   0.000000000000e+00
    RHS       C0002060   9.000000000000e+00
    RHS       C0002061   0.000000000000e+00
    RHS       C0002062   0.000000000000e+00
    RHS       C0002063   0.000000000000e+00
    RHS       C0002064   9.000000000000e+00
    RHS       C0002065   0.000000000000e+00
    RHS       C0002066   0.000000000000e+00
    RHS       C0002067   0.000000000000e+00
    RHS       C0002068   9.000000000000e+00
    RHS       C0002069   0.000000000000e+00
    RHS       C0002070   0.000000000000e+00
    RHS       C0002071   0.000000000000e+00
    RHS       C0002072   9.000000000000e+00
    RHS       C0002073   0.000000000000e+00
    RHS       C0002074   0.000000000000e+00
    RHS       C0002075   0.000000000000e+00
    RHS       C0002076   9.000000000000e+00
    RHS       C0002077   0.000000000000e+00
    RHS       C0002078   0.000000000000e+00
    RHS       C0002079   0.000000000000e+00
    RHS       C0002080   9.000000000000e+00
    RHS       C0002081   0.000000000000e+00
    RHS       C0002082   0.000000000000e+00
    RHS       C0002083   0.000000000000e+00
    RHS       C0002084   9.000000000000e+00
    RHS       C0002085   0.000000000000e+00
    RHS       C0002086   0.000000000000e+00
    RHS       C0002087   0.000000000000e+00
    RHS       C0002088   0.000000000000e+00
    RHS       C0002089   0.000000000000e+00
    RHS       C0002090   0.000000000000e+00
    RHS       C0002091   0.000000000000e+00
    RHS       C0002092   0.000000000000e+00
    RHS       C0002093   0.000000000000e+00
    RHS       C0002094   0.000000000000e+00
    RHS       C0002095   0.000000000000e+00
    RHS       C0002096   0.000000000000e+00
    RHS       C0002097   0.000000000000e+00
    RHS       C0002098   0.000000000000e+00
    RHS       C0002099   0.000000000000e+00
    RHS       C0002100   0.000000000000e+00
    RHS       C0002101   0.000000000000e+00
    RHS       C0002102   0.000000000000e+00
    RHS       C0002103   9.000000000000e+00
    RHS       C0002104   0.000000000000e+00
    RHS       C0002105   0.000000000000e+00
    RHS       C0002106   0.000000000000e+00
    RHS       C0002107   9.000000000000e+00
    RHS       C0002108   0.000000000000e+00
    RHS       C0002109   0.000000000000e+00
    RHS       C0002110   0.000000000000e+00
    RHS       C0002111   9.000000000000e+00
    RHS       C0002112   0.000000000000e+00
    RHS       C0002113   0.000000000000e+00
    RHS       C0002114   0.000000000000e+00
    RHS       C0002115   9.000000000000e+00
    RHS       C0002116   0.000000000000e+00
    RHS       C0002117   0.000000000000e+00
    RHS       C0002118   0.000000000000e+00
    RHS       C0002119   9.000000000000e+00
    RHS       C0002120   0.000000000000e+00
    RHS       C0002121   0.000000000000e+00
    RHS       C0002122   0.000000000000e+00
    RHS       C0002123   9.000000000000e+00
    RHS       C0002124   0.000000000000e+00
    RHS       C0002125   0.000000000000e+00
    RHS       C0002126   0.000000000000e+00
    RHS       C0002127   9.000000000000e+00
    RHS       C0002128   0.000000000000e+00
    RHS       C0002129   0.000000000000e+00
    RHS       C0002130   0.000000000000e+00
    RHS       C0002131   0.000000000000e+00
    RHS       C0002132   0.000000000000e+00
    RHS       C0002133   0.000000000000e+00
    RHS       C0002134   0.000000000000e+00
    RHS       C0002135   0.000000000000e+00
    RHS       C0002136   0.000000000000e+00
    RHS       C0002137   0.000000000000e+00
    RHS       C0002138   0.000000000000e+00
    RHS       C0002139   0.000000000000e+00
    RHS       C0002140   0.000000000000e+00
    RHS       C0002141   0.000000000000e+00
    RHS       C0002142   0.000000000000e+00
    RHS       C0002143   0.000000000000e+00
    RHS       C0002144   0.000000000000e+00
    RHS       C0002145   0.000000000000e+00
    RHS       C0002146   0.000000000000e+00
    RHS       C0002147   0.000000000000e+00
    RHS       C0002148   0.000000000000e+00
    RHS       C0002149   0.000000000000e+00
    RHS       C0002150   0.000000000000e+00
    RHS       C0002151   0.000000000000e+00
    RHS       C0002152   0.000000000000e+00
    RHS       C0002153   0.000000000000e+00
    RHS       C0002154   0.000000000000e+00
    RHS       C0002155   0.000000000000e+00
    RHS       C0002156   0.000000000000e+00
    RHS       C0002157   0.000000000000e+00
    RHS       C0002158   0.000000000000e+00
    RHS       C0002159   0.000000000000e+00
    RHS       C0002160   0.000000000000e+00
    RHS       C0002161   0.000000000000e+00
    RHS       C0002162   0.000000000000e+00
    RHS       C0002163   0.000000000000e+00
    RHS       C0002164   0.000000000000e+00
    RHS       C0002165   0.000000000000e+00
    RHS       C0002166   0.000000000000e+00
    RHS       C0002167   0.000000000000e+00
    RHS       C0002168   0.000000000000e+00
    RHS       C0002169   0.000000000000e+00
    RHS       C0002170   0.000000000000e+00
    RHS       C0002171   0.000000000000e+00
    RHS       C0002172   0.000000000000e+00
    RHS       C0002173   0.000000000000e+00
    RHS       C0002174   0.000000000000e+00
    RHS       C0002175   0.000000000000e+00
    RHS       C0002176   0.000000000000e+00
    RHS       C0002177   0.000000000000e+00
    RHS       C0002178   0.000000000000e+00
    RHS       C0002179   0.000000000000e+00
    RHS       C0002180   0.000000000000e+00
    RHS       C0002181   0.000000000000e+00
    RHS       C0002182   0.000000000000e+00
    RHS       C0002183   0.000000000000e+00
    RHS       C0002184   0.000000000000e+00
    RHS       C0002185   0.000000000000e+00
    RHS       C0002186   0.000000000000e+00
    RHS       C0002187   0.000000000000e+00
    RHS       C0002188   0.000000000000e+00
    RHS       C0002189   0.000000000000e+00
    RHS       C0002190   0.000000000000e+00
    RHS       C0002191   0.000000000000e+00
    RHS       C0002192   0.000000000000e+00
    RHS       C0002193   0.000000000000e+00
    RHS       C0002194   0.000000000000e+00
    RHS       C0002195   0.000000000000e+00
    RHS       C0002196   0.000000000000e+00
    RHS       C0002197   0.000000000000e+00
    RHS       C0002198   0.000000000000e+00
    RHS       C0002199   0.000000000000e+00
    RHS       C0002200   0.000000000000e+00
    RHS       C0002201   0.000000000000e+00
    RHS       C0002202   0.000000000000e+00
    RHS       C0002203   0.000000000000e+00
    RHS       C0002204   0.000000000000e+00
    RHS       C0002205   0.000000000000e+00
BOUNDS
 FR BND       X0000000
 FR BND       X0000001
 FR BND       X0000002
 FR BND       X0000003
 FR BND       X0000004
 FR BND       X0000005
 FR BND       X0000006
 FR BND       X0000007
 FR BND       X0000008
 FR BND       X0000009
 FR BND       X0000010
 FR BND       X0000011
 FR BND       X0000012
 FR BND       X0000013
 FR BND       X0000014
 FR BND       X0000015
 FR BND       X0000016
 FR BND       X0000017
 FR BND       X0000018
 FR BND       X0000019
 FR BND       X0000020
 FR BND       X0000021
 FR BND       X0000022
 FR BND       X0000023
 FR BND       X0000024
 FR BND       X0000025
 FR BND       X0000026
 FR BND       X0000027
 FR BND       X0000028
 FR BND       X0000029
 FR BND       X0000030
 FR BND       X0000031
 FR BND       X0000032
 FR BND       X0000033
 FR BND       X0000034
 FR BND       X0000035
 FR BND       X0000036
 FR BND       X0000037
 FR BND       X0000038
 FR BND       X0000039
 FR BND       X0000040
 FR BND       X0000041
 FR BND       X0000042
 FR BND       X0000043
 FR BND       X0000044
 FR BND       X0000045
 FR BND       X0000046
 FR BND       X0000047
 FR BND       X0000048
 FR BND       X0000049
 FR BND       X0000050
 FR BND       X0000051
 FR BND       X0000052
 FR BND       X0000053
 FR BND       X0000054
 FR BND       X0000055
 FR BND       X0000056
 FR BND       X0000057
 FR BND       X0000058
 FR BND       X0000059
 FR BND       X0000060
 FR BND       X0000061
 FR BND       X0000062
 FR BND       X0000063
 FR BND       X0000064
 FR BND       X0000065
 LO BND       X0000066   0.000000000000e+00
 LO BND       X0000067   0.000000000000e+00
 LO BND       X0000068   0.000000000000e+00
 LO BND       X0000069   0.000000000000e+00
 LO BND       X0000070   0.000000000000e+00
 LO BND       X0000071   0.000000000000e+00
 LO BND       X0000072   0.000000000000e+00
 LO BND       X0000073   0.000000000000e+00
 LO BND       X0000074   0.000000000000e+00
 LO BND       X0000075   0.000000000000e+00
 LO BND       X0000076   0.000000000000e+00
 LO BND       X0000077   0.000000000000e+00
 LO BND       X0000078   0.000000000000e+00
 LO BND       X0000079   0.000000000000e+00
 LO BND       X0000080   0.000000000000e+00
 LO BND       X0000081   0.000000000000e+00
 LO BND       X0000082   0.000000000000e+00
 LO BND       X0000083   0.000000000000e+00
 LO BND       X0000084   0.000000000000e+00
 LO BND       X0000085   0.000000000000e+00
 LO BND       X0000086   0.000000000000e+00
 LO BND       X0000087   0.000000000000e+00
 LO BND       X0000088   0.000000000000e+00
 LO BND       X0000089   0.000000000000e+00
 LO BND       X0000090   0.000000000000e+00
 LO BND       X0000091   0.000000000000e+00
 LO BND       X0000092   0.000000000000e+00
 LO BND       X0000093   0.000000000000e+00
 LO BND       X0000094   0.000000000000e+00
 LO BND       X0000095   0.000000000000e+00
 LO BND       X0000096   0.000000000000e+00
 LO BND       X0000097   0.000000000000e+00
 LO BND       X0000098   0.000000000000e+00
 LO BND       X0000099   0.000000000000e+00
 LO BND       X0000100   0.000000000000e+00
 LO BND       X0000101   0.000000000000e+00
 LO BND       X0000102   0.000000000000e+00
 LO BND       X0000103   0.000000000000e+00
 LO BND       X0000104   0.000000000000e+00
 LO BND       X0000105   0.000000000000e+00
 LO BND       X0000106   0.000000000000e+00
 LO BND       X0000107   0.000000000000e+00
 LO BND       X0000108   0.000000000000e+00
 LO BND       X0000109   0.000000000000e+00
 LO BND       X0000110   0.000000000000e+00
 LO BND       X0000111   0.000000000000e+00
 LO BND       X0000112   0.000000000000e+00
 LO BND       X0000113   0.000000000000e+00
 LO BND       X0000114   0.000000000000e+00
 LO BND       X0000115   0.000000000000e+00
 LO BND       X0000116   0.000000000000e+00
 LO BND       X0000117   0.000000000000e+00
 LO BND       X0000118   0.000000000000e+00
 LO BND       X0000119   0.000000000000e+00
 LO BND       X0000120   0.000000000000e+00
 LO BND       X0000121   0.000000000000e+00
 LO BND       X0000122   0.000000000000e+00
 LO BND       X0000123   0.000000000000e+00
 LO BND       X0000124   0.000000000000e+00
 LO BND       X0000125   0.000000000000e+00
 LO BND       X0000126   0.000000000000e+00
 LO BND       X0000127   0.000000000000e+00
 LO BND       X0000128   0.000000000000e+00
 LO BND       X0000129   0.000000000000e+00
 LO BND       X0000130   0.000000000000e+00
 LO BND       X0000131   0.000000000000e+00
 LO BND       X0000132   0.000000000000e+00
 LO BND       X0000133   0.000000000000e+00
 LO BND       X0000134   0.000000000000e+00
 LO BND       X0000135   0.000000000000e+00
 LO BND       X0000136   0.000000000000e+00
 LO BND       X0000137   0.000000000000e+00
 LO BND       X0000138   0.000000000000e+00
 LO BND       X0000139   0.000000000000e+00
 LO BND       X0000140   0.000000000000e+00
 LO BND       X0000141   0.000000000000e+00
 LO BND       X0000142   0.000000000000e+00
 LO BND       X0000143   0.000000000000e+00
 LO BND       X0000144   0.000000000000e+00
 LO BND       X0000145   0.000000000000e+00
 LO BND       X0000146   0.000000000000e+00
 LO BND       X0000147   0.000000000000e+00
 LO BND       X0000148   0.000000000000e+00
 LO BND       X0000149   0.000000000000e+00
 LO BND       X0000150   0.000000000000e+00
 LO BND       X0000151   0.000000000000e+00
 LO BND       X0000152   0.000000000000e+00
 LO BND       X0000153   0.000000000000e+00
 LO BND       X0000154   0.000000000000e+00
 LO BND       X0000155   0.000000000000e+00
 LO BND       X0000156   0.000000000000e+00
 LO BND       X0000157   0.000000000000e+00
 LO BND       X0000158   0.000000000000e+00
 LO BND       X0000159   0.000000000000e+00
 LO BND       X0000160   0.000000000000e+00
 LO BND       X0000161   0.000000000000e+00
 LO BND       X0000162   0.000000000000e+00
 LO BND       X0000163   0.000000000000e+00
 LO BND       X0000164   0.000000000000e+00
 LO BND       X0000165   0.000000000000e+00
 LO BND       X0000166   0.000000000000e+00
 LO BND       X0000167   0.000000000000e+00
 LO BND       X0000168   0.000000000000e+00
 LO BND       X0000169   0.000000000000e+00
 LO BND       X0000170   0.000000000000e+00
 LO BND       X0000171   0.000000000000e+00
 LO BND       X0000172   0.000000000000e+00
 LO BND       X0000173   0.000000000000e+00
 LO BND       X0000174   0.000000000000e+00
 LO BND       X0000175   0.000000000000e+00
 LO BND       X0000176   0.000000000000e+00
 LO BND       X0000177   0.000000000000e+00
 LO BND       X0000178   0.000000000000e+00
 LO BND       X0000179   0.000000000000e+00
 LO BND       X0000180   0.000000000000e+00
 LO BND       X0000181   0.000000000000e+00
 LO BND       X0000182   0.000000000000e+00
 LO BND       X0000183   0.000000000000e+00
 LO BND       X0000184   0.000000000000e+00
 LO BND       X0000185   0.000000000000e+00
 LO BND       X0000186   0.000000000000e+00
 LO BND       X0000187   0.000000000000e+00
 LO BND       X0000188   0.000000000000e+00
 LO BND       X0000189   0.000000000000e+00
 LO BND       X0000190   0.000000000000e+00
 LO BND       X0000191   0.000000000000e+00
 LO BND       X0000192   0.000000000000e+00
 LO BND       X0000193   0.000000000000e+00
 LO BND       X0000194   0.000000000000e+00
 LO BND       X0000195   0.000000000000e+00
 LO BND       X0000196   0.000000000000e+00
 LO BND       X0000197   0.000000000000e+00
 LO BND       X0000198   0.000000000000e+00
 LO BND       X0000199   0.000000000000e+00
 LO BND       X0000200   0.000000000000e+00
 LO BND       X0000201   0.000000000000e+00
 LO BND       X0000202   0.000000000000e+00
 LO BND       X0000203   0.000000000000e+00
 LO BND       X0000204   0.000000000000e+00
 LO BND       X0000205   0.000000000000e+00
 LO BND       X0000206   0.000000000000e+00
 LO BND       X0000207   0.000000000000e+00
 LO BND       X0000208   0.000000000000e+00
 LO BND       X0000209   0.000000000000e+00
 LO BND       X0000210   0.000000000000e+00
 LO BND       X0000211   0.000000000000e+00
 LO BND       X0000212   0.000000000000e+00
 LO BND       X0000213   0.000000000000e+00
 LO BND       X0000214   0.000000000000e+00
 LO BND       X0000215   0.000000000000e+00
 LO BND       X0000216   0.000000000000e+00
 LO BND       X0000217   0.000000000000e+00
 LO BND       X0000218   0.000000000000e+00
 LO BND       X0000219   0.000000000000e+00
 LO BND       X0000220   0.000000000000e+00
 LO BND       X0000221   0.000000000000e+00
 LO BND       X0000222   0.000000000000e+00
 LO BND       X0000223   0.000000000000e+00
 LO BND       X0000224   0.000000000000e+00
 LO BND       X0000225   0.000000000000e+00
 LO BND       X0000226   0.000000000000e+00
 LO BND       X0000227   0.000000000000e+00
 LO BND       X0000228   0.000000000000e+00
 LO BND       X0000229   0.000000000000e+00
 LO BND       X0000230   0.000000000000e+00
 LO BND       X0000231   0.000000000000e+00
 LO BND       X0000232   0.000000000000e+00
 LO BND       X0000233   0.000000000000e+00
 LO BND       X0000234   0.000000000000e+00
 LO BND       X0000235   0.000000000000e+00
 LO BND       X0000236   0.000000000000e+00
 LO BND       X0000237   0.000000000000e+00
 LO BND       X0000238   0.000000000000e+00
 LO BND       X0000239   0.000000000000e+00
 LO BND       X0000240   0.000000000000e+00
 LO BND       X0000241   0.000000000000e+00
 LO BND       X0000242   0.000000000000e+00
 LO BND       X0000243   0.000000000000e+00
 LO BND       X0000244   0.000000000000e+00
 LO BND       X0000245   0.000000000000e+00
 LO BND       X0000246   0.000000000000e+00
 LO BND       X0000247   0.000000000000e+00
 LO BND       X0000248   0.000000000000e+00
 LO BND       X0000249   0.000000000000e+00
 LO BND       X0000250   0.000000000000e+00
 LO BND       X0000251   0.000000000000e+00
 LO BND       X0000252   0.000000000000e+00
 LO BND       X0000253   0.000000000000e+00
 LO BND       X0000254   0.000000000000e+00
 LO BND       X0000255   0.000000000000e+00
 LO BND       X0000256   0.000000000000e+00
 LO BND       X0000257   0.000000000000e+00
 LO BND       X0000258   0.000000000000e+00
 LO BND       X0000259   0.000000000000e+00
 LO BND       X0000260   0.000000000000e+00
 LO BND       X0000261   0.000000000000e+00
 LO BND       X0000262   0.000000000000e+00
 LO BND       X0000263   0.000000000000e+00
 LO BND       X0000264   0.000000000000e+00
 LO BND       X0000265   0.000000000000e+00
 LO BND       X0000266   0.000000000000e+00
 LO BND       X0000267   0.000000000000e+00
 LO BND       X0000268   0.000000000000e+00
 LO BND       X0000269   0.000000000000e+00
 LO BND       X0000270   0.000000000000e+00
 LO BND       X0000271   0.000000000000e+00
 LO BND       X0000272   0.000000000000e+00
 LO BND       X0000273   0.000000000000e+00
 LO BND       X0000274   0.000000000000e+00
 LO BND       X0000275   0.000000000000e+00
 LO BND       X0000276   0.000000000000e+00
 LO BND       X0000277   0.000000000000e+00
 LO BND       X0000278   0.000000000000e+00
 LO BND       X0000279   0.000000000000e+00
 LO BND       X0000280   0.000000000000e+00
 LO BND       X0000281   0.000000000000e+00
 LO BND       X0000282   0.000000000000e+00
 LO BND       X0000283   0.000000000000e+00
 LO BND       X0000284   0.000000000000e+00
 LO BND       X0000285   0.000000000000e+00
 LO BND       X0000286   0.000000000000e+00
 LO BND       X0000287   0.000000000000e+00
 LO BND       X0000288   0.000000000000e+00
 LO BND       X0000289   0.000000000000e+00
 LO BND       X0000290   0.000000000000e+00
 LO BND       X0000291   0.000000000000e+00
 LO BND       X0000292   0.000000000000e+00
 LO BND       X0000293   0.000000000000e+00
 LO BND       X0000294   0.000000000000e+00
 LO BND       X0000295   0.000000000000e+00
 LO BND       X0000296   0.000000000000e+00
 LO BND       X0000297   0.000000000000e+00
 LO BND       X0000298   0.000000000000e+00
 LO BND       X0000299   0.000000000000e+00
 LO BND       X0000300   0.000000000000e+00
 LO BND       X0000301   0.000000000000e+00
 LO BND       X0000302   0.000000000000e+00
 LO BND       X0000303   0.000000000000e+00
 LO BND       X0000304   0.000000000000e+00
 LO BND       X0000305   0.000000000000e+00
 LO BND       X0000306   0.000000000000e+00
 LO BND       X0000307   0.000000000000e+00
 LO BND       X0000308   0.000000000000e+00
 LO BND       X0000309   0.000000000000e+00
 LO BND       X0000310   0.000000000000e+00
 LO BND       X0000311   0.000000000000e+00
 LO BND       X0000312   0.000000000000e+00
 LO BND       X0000313   0.000000000000e+00
 LO BND       X0000314   0.000000000000e+00
 LO BND       X0000315   0.000000000000e+00
 LO BND       X0000316   0.000000000000e+00
 LO BND       X0000317   0.000000000000e+00
 LO BND       X0000318   0.000000000000e+00
 LO BND       X0000319   0.000000000000e+00
 LO BND       X0000320   0.000000000000e+00
 LO BND       X0000321   0.000000000000e+00
 LO BND       X0000322   0.000000000000e+00
 LO BND       X0000323   0.000000000000e+00
 LO BND       X0000324   0.000000000000e+00
 LO BND       X0000325   0.000000000000e+00
 LO BND       X0000326   0.000000000000e+00
 LO BND       X0000327   0.000000000000e+00
 LO BND       X0000328   0.000000000000e+00
 LO BND       X0000329   0.000000000000e+00
 LO BND       X0000330   0.000000000000e+00
 LO BND       X0000331   0.000000000000e+00
 LO BND       X0000332   0.000000000000e+00
 LO BND       X0000333   0.000000000000e+00
 LO BND       X0000334   0.000000000000e+00
 LO BND       X0000335   0.000000000000e+00
 LO BND       X0000336   0.000000000000e+00
 LO BND       X0000337   0.000000000000e+00
 LO BND       X0000338   0.000000000000e+00
 LO BND       X0000339   0.000000000000e+00
 LO BND       X0000340   0.000000000000e+00
 LO BND       X0000341   0.000000000000e+00
 LO BND       X0000342   0.000000000000e+00
 LO BND       X0000343   0.000000000000e+00
 LO BND       X0000344   0.000000000000e+00
 LO BND       X0000345   0.000000000000e+00
 LO BND       X0000346   0.000000000000e+00
 LO BND       X0000347   0.000000000000e+00
 LO BND       X0000348   0.000000000000e+00
 LO BND       X0000349   0.000000000000e+00
 LO BND       X0000350   0.000000000000e+00
 LO BND       X0000351   0.000000000000e+00
 LO BND       X0000352   0.000000000000e+00
 LO BND       X0000353   0.000000000000e+00
 LO BND       X0000354   0.000000000000e+00
 LO BND       X0000355   0.000000000000e+00
 LO BND       X0000356   0.000000000000e+00
 LO BND       X0000357   0.000000000000e+00
 LO BND       X0000358   0.000000000000e+00
 LO BND       X0000359   0.000000000000e+00
 LO BND       X0000360   0.000000000000e+00
 LO BND       X0000361   0.000000000000e+00
 LO BND       X0000362   0.000000000000e+00
 LO BND       X0000363   0.000000000000e+00
 LO BND       X0000364   0.000000000000e+00
 LO BND       X0000365   0.000000000000e+00
 LO BND       X0000366   0.000000000000e+00
 LO BND       X0000367   0.000000000000e+00
 LO BND       X0000368   0.000000000000e+00
 LO BND       X0000369   0.000000000000e+00
 LO BND       X0000370   0.000000000000e+00
 LO BND       X0000371   0.000000000000e+00
 LO BND       X0000372   0.000000000000e+00
 LO BND       X0000373   0.000000000000e+00
 LO BND       X0000374   0.000000000000e+00
 LO BND       X0000375   0.000000000000e+00
 LO BND       X0000376   0.000000000000e+00
 LO BND       X0000377   0.000000000000e+00
 LO BND       X0000378   0.000000000000e+00
 LO BND       X0000379   0.000000000000e+00
 LO BND       X0000380   0.000000000000e+00
 LO BND       X0000381   0.000000000000e+00
 LO BND       X0000382   0.000000000000e+00
 LO BND       X0000383   0.000000000000e+00
 LO BND       X0000384   0.000000000000e+00
 LO BND       X0000385   0.000000000000e+00
 LO BND       X0000386   0.000000000000e+00
 LO BND       X0000387   0.000000000000e+00
 LO BND       X0000388   0.000000000000e+00
 LO BND       X0000389   0.000000000000e+00
 LO BND       X0000390   0.000000000000e+00
 LO BND       X0000391   0.000000000000e+00
 LO BND       X0000392   0.000000000000e+00
 LO BND       X0000393   0.000000000000e+00
 LO BND       X0000394   0.000000000000e+00
 LO BND       X0000395   0.000000000000e+00
 LO BND       X0000396   0.000000000000e+00
 LO BND       X0000397   0.000000000000e+00
 LO BND       X0000398   0.000000000000e+00
 LO BND       X0000399   0.000000000000e+00
 LO BND       X0000400   0.000000000000e+00
 LO BND       X0000401   0.000000000000e+00
 LO BND       X0000402   0.000000000000e+00
 LO BND       X0000403   0.000000000000e+00
 LO BND       X0000404   0.000000000000e+00
 LO BND       X0000405   0.000000000000e+00
 LO BND       X0000406   0.000000000000e+00
 LO BND       X0000407   0.000000000000e+00
 LO BND       X0000408   0.000000000000e+00
 LO BND       X0000409   0.000000000000e+00
 LO BND       X0000410   0.000000000000e+00
 LO BND       X0000411   0.000000000000e+00
 LO BND       X0000412   0.000000000000e+00
 LO BND       X0000413   0.000000000000e+00
 LO BND       X0000414   0.000000000000e+00
 LO BND       X0000415   0.000000000000e+00
 LO BND       X0000416   0.000000000000e+00
 LO BND       X0000417   0.000000000000e+00
 LO BND       X0000418   0.000000000000e+00
 LO BND       X0000419   0.000000000000e+00
 LO BND       X0000420   0.000000000000e+00
 LO BND       X0000421   0.000000000000e+00
 LO BND       X0000422   0.000000000000e+00
 LO BND       X0000423   0.000000000000e+00
 LO BND       X0000424   0.000000000000e+00
 LO BND       X0000425   0.000000000000e+00
 BV BND       X0000546
 BV BND       X0000547
 BV BND       X0000548
 BV BND       X0000549
 BV BND       X0000550
 BV BND       X0000551
 BV BND       X0000552
 BV BND       X0000553
 BV BND       X0000554
 BV BND       X0000555
 BV BND       X0000556
 BV BND       X0000557
 BV BND       X0000558
 BV BND       X0000559
 BV BND       X0000560
 BV BND       X0000561
 BV BND       X0000562
 BV BND       X0000563
 BV BND       X0000564
 BV BND       X0000565
 BV BND       X0000566
 BV BND       X0000567
 BV BND       X0000568
 BV BND       X0000569
 BV BND       X0000570
 BV BND       X0000571
 BV BND       X0000572
 BV BND       X0000573
 BV BND       X0000574
 BV BND       X0000575
 BV BND       X0000576
 BV BND       X0000577
 BV BND       X0000578
 BV BND       X0000579
 BV BND       X0000580
 BV BND       X0000581
 BV BND       X0000582
 BV BND       X0000583
 BV BND       X0000584
 BV BND       X0000585
 BV BND       X0000586
 BV BND       X0000587
 BV BND       X0000588
 BV BND       X0000589
 BV BND       X0000590
 BV BND       X0000591
 BV BND       X0000592
 BV BND       X0000593
 BV BND       X0000594
 BV BND       X0000595
 BV BND       X0000596
 BV BND       X0000597
 BV BND       X0000598
 BV BND       X0000599
 BV BND       X0000600
 BV BND       X0000601
 BV BND       X0000602
 BV BND       X0000603
 BV BND       X0000604
 BV BND       X0000605
 BV BND       X0000606
 BV BND       X0000607
 BV BND       X0000608
 BV BND       X0000609
 BV BND       X0000610
 BV BND       X0000611
 BV BND       X0000612
 BV BND       X0000613
 BV BND       X0000614
 BV BND       X0000615
 BV BND       X0000616
 BV BND       X0000617
 BV BND       X0000618
 BV BND       X0000619
 BV BND       X0000620
 BV BND       X0000621
 BV BND       X0000622
 BV BND       X0000623
 BV BND       X0000624
 BV BND       X0000625
 BV BND       X0000626
 BV BND       X0000627
 BV BND       X0000628
 BV BND       X0000629
 BV BND       X0000630
 BV BND       X0000631
 BV BND       X0000632
 BV BND       X0000633
 BV BND       X0000634
 BV BND       X0000635
 BV BND       X0000636
 BV BND       X0000637
 BV BND       X0000638
 BV BND       X0000639
 BV BND       X0000640
 BV BND       X0000641
 BV BND       X0000642
 BV BND       X0000643
 BV BND       X0000644
 BV BND       X0000645
 BV BND       X0000646
 BV BND       X0000647
 BV BND       X0000648
 BV BND       X0000649
 BV BND       X0000650
 BV BND       X0000651
 BV BND       X0000652
 BV BND       X0000653
 BV BND       X0000654
 BV BND       X0000655
 BV BND       X0000656
 BV BND       X0000657
 BV BND       X0000658
 BV BND       X0000659
 BV BND       X0000660
 BV BND       X0000661
 BV BND       X0000662
 BV BND       X0000663
 BV BND       X0000664
 BV BND       X0000665
 BV BND       X0000666
 BV BND       X0000667
 BV BND       X0000668
 BV BND       X0000669
 BV BND       X0000670
 BV BND       X0000671
 BV BND       X0000672
 BV BND       X0000673
 BV BND       X0000674
 BV BND       X0000675
 BV BND       X0000676
 BV BND       X0000677
 BV BND       X0000678
 BV BND       X0000679
 BV BND       X0000680
 BV BND       X0000681
 BV BND       X0000682
 BV BND       X0000683
 BV BND       X0000684
 BV BND       X0000685
 BV BND       X0000686
 BV BND       X0000687
 BV BND       X0000688
 BV BND       X0000689
 BV BND       X0000690
 BV BND       X0000691
 BV BND       X0000692
 BV BND       X0000693
 BV BND       X0000694
 BV BND       X0000695
 BV BND       X0000696
 BV BND       X0000697
 BV BND       X0000698
 BV BND       X0000699
 BV BND       X0000700
 BV BND       X0000701
 BV BND       X0000702
 BV BND       X0000703
 BV BND       X0000704
 BV BND       X0000705
 BV BND       X0000706
 BV BND       X0000707
 BV BND       X0000708
 BV BND       X0000709
 BV BND       X0000710
 BV BND       X0000711
 BV BND       X0000712
 BV BND       X0000713
 BV BND       X0000714
 BV BND       X0000715
 BV BND       X0000716
 BV BND       X0000717
 BV BND       X0000718
 BV BND       X0000719
 BV BND       X0000720
 BV BND       X0000721
 BV BND       X0000722
 BV BND       X0000723
 BV BND       X0000724
 BV BND       X0000725
 BV BND       X0000726
 BV BND       X0000727
 BV BND       X0000728
 BV BND       X0000729
 BV BND       X0000730
 BV BND       X0000731
 BV BND       X0000732
 BV BND       X0000733
 BV BND       X0000734
 BV BND       X0000735
 BV BND       X0000736
 BV BND       X0000737
 BV BND       X0000738
 BV BND       X0000739
 BV BND       X0000740
 BV BND       X0000741
 BV BND       X0000742
 BV BND       X0000743
 BV BND       X0000744
 BV BND       X0000745
 BV BND       X0000746
 BV BND       X0000747
 BV BND       X0000748
 BV BND       X0000749
 BV BND       X0000750
 BV BND       X0000751
 BV BND       X0000752
 BV BND       X0000753
 BV BND       X0000754
 BV BND       X0000755
 BV BND       X0000756
 BV BND       X0000757
 BV BND       X0000758
 BV BND       X0000759
 BV BND       X0000760
 BV BND       X0000761
 BV BND       X0000762
 BV BND       X0000763
 BV BND       X0000764
 BV BND       X0000765
 BV BND       X0000766
 BV BND       X0000767
 BV BND       X0000768
 BV BND       X0000769
 BV BND       X0000770
 BV BND       X0000771
 BV BND       X0000772
 BV BND       X0000773
 BV BND       X0000774
 BV BND       X0000775
 BV BND       X0000776
 BV BND       X0000777
 BV BND       X0000778
 BV BND       X0000779
 BV BND       X0000780
 BV BND       X0000781
 BV BND       X0000782
 BV BND       X0000783
 BV BND       X0000784
 BV BND       X0000785
 BV BND       X0000786
 BV BND       X0000787
 BV BND       X0000788
 BV BND       X0000789
 BV BND       X0000790
 BV BND       X0000791
 BV BND       X0000792
 BV BND       X0000793
 BV BND       X0000794
 BV BND       X0000795
 BV BND       X0000796
 BV BND       X0000797
 BV BND       X0000798
 BV BND       X0000799
 BV BND       X0000800
 BV BND       X0000801
 BV BND       X0000802
 BV BND       X0000803
 BV BND       X0000804
 BV BND       X0000805
 BV BND       X0000806
 BV BND       X0000807
 BV BND       X0000808
 BV BND       X0000809
 BV BND       X0000810
 BV BND       X0000811
 BV BND       X0000812
 BV BND       X0000813
 BV BND       X0000814
 BV BND       X0000815
 BV BND       X0000816
 BV BND       X0000817
 BV BND       X0000818
 BV BND       X0000819
 BV BND       X0000820
 BV BND       X0000821
 BV BND       X0000822
 BV BND       X0000823
 BV BND       X0000824
 BV BND       X0000825
 BV BND       X0000826
 BV BND       X0000827
 BV BND       X0000828
 BV BND       X0000829
 BV BND       X0000830
 BV BND       X0000831
 BV BND       X0000832
 BV BND       X0000833
 BV BND       X0000834
 BV BND       X0000835
 BV BND       X0000836
 BV BND       X0000837
 BV BND       X0000838
 BV BND       X0000839
 BV BND       X0000840
 BV BND       X0000841
 BV BND       X0000842
 BV BND       X0000843
 BV BND       X0000844
 BV BND       X0000845
 BV BND       X0000846
 BV BND       X0000847
 BV BND       X0000848
 BV BND       X0000849
 BV BND       X0000850
 BV BND       X0000851
 BV BND       X0000852
 BV BND       X0000853
 BV BND       X0000854
 BV BND       X0000855
 BV BND       X0000856
 BV BND       X0000857
 BV BND       X0000858
 BV BND       X0000859
 BV BND       X0000860
 BV BND       X0000861
 BV BND       X0000862
 BV BND       X0000863
 BV BND       X0000864
 BV BND       X0000865
 BV BND       X0000866
 BV BND       X0000867
 BV BND       X0000868
 BV BND       X0000869
 BV BND       X0000870
 BV BND       X0000871
 BV BND       X0000872
 BV BND       X0000873
 BV BND       X0000874
 BV BND       X0000875
 BV BND       X0000876
 BV BND       X0000877
 BV BND       X0000878
 BV BND       X0000879
 BV BND       X0000880
 BV BND       X0000881
 BV BND       X0000882
 BV BND       X0000883
 BV BND       X0000884
 BV BND       X0000885
 BV BND       X0000886
 BV BND       X0000887
 BV BND       X0000888
 BV BND       X0000889
 BV BND       X0000890
 BV BND       X0000891
 BV BND       X0000892
 BV BND       X0000893
 BV BND       X0000894
 BV BND       X0000895
 BV BND       X0000896
 BV BND       X0000897
 BV BND       X0000898
 BV BND       X0000899
 BV BND       X0000900
 BV BND       X0000901
 BV BND       X0000902
 BV BND       X0000903
 BV BND       X0000904
 BV BND       X0000905
 LO BND       X0000906   0.000000000000e+00
 LO BND       X0000907   0.000000000000e+00
 LO BND       X0000908   0.000000000000e+00
 LO BND       X0000909   0.000000000000e+00
 LO BND       X0000910   0.000000000000e+00
 LO BND       X0000911   0.000000000000e+00
 LO BND       X0000912   0.000000000000e+00
 LO BND       X0000913   0.000000000000e+00
 LO BND       X0000914   0.000000000000e+00
 LO BND       X0000915   0.000000000000e+00
 LO BND       X0000916   0.000000000000e+00
 LO BND       X0000917   0.000000000000e+00
 LO BND       X0000918   0.000000000000e+00
 LO BND       X0000919   0.000000000000e+00
 LO BND       X0000920   0.000000000000e+00
 LO BND       X0000921   0.000000000000e+00
 LO BND       X0000922   0.000000000000e+00
 LO BND       X0000923   0.000000000000e+00
 LO BND       X0000924   0.000000000000e+00
 LO BND       X0000925   0.000000000000e+00
 LO BND       X0000926   0.000000000000e+00
 LO BND       X0000927   0.000000000000e+00
 LO BND       X0000928   0.000000000000e+00
 LO BND       X0000929   0.000000000000e+00
 LO BND       X0000930   0.000000000000e+00
 LO BND       X0000931   0.000000000000e+00
 LO BND       X0000932   0.000000000000e+00
 LO BND       X0000933   0.000000000000e+00
 LO BND       X0000934   0.000000000000e+00
 LO BND       X0000935   0.000000000000e+00
 LO BND       X0000936   0.000000000000e+00
 LO BND       X0000937   0.000000000000e+00
 LO BND       X0000938   0.000000000000e+00
 LO BND       X0000939   0.000000000000e+00
 LO BND       X0000940   0.000000000000e+00
 LO BND       X0000941   0.000000000000e+00
 LO BND       X0000942   0.000000000000e+00
 LO BND       X0000943   0.000000000000e+00
 LO BND       X0000944   0.000000000000e+00
 LO BND       X0000945   0.000000000000e+00
 LO BND       X0000946   0.000000000000e+00
 LO BND       X0000947   0.000000000000e+00
 LO BND       X0000948   0.000000000000e+00
 LO BND       X0000949   0.000000000000e+00
 LO BND       X0000950   0.000000000000e+00
 LO BND       X0000951   0.000000000000e+00
 LO BND       X0000952   0.000000000000e+00
 LO BND       X0000953   0.000000000000e+00
 LO BND       X0000954   0.000000000000e+00
 LO BND       X0000955   0.000000000000e+00
 LO BND       X0000956   0.000000000000e+00
 LO BND       X0000957   0.000000000000e+00
 LO BND       X0000958   0.000000000000e+00
 LO BND       X0000959   0.000000000000e+00
 LO BND       X0000960   0.000000000000e+00
 LO BND       X0000961   0.000000000000e+00
 LO BND       X0000962   0.000000000000e+00
 LO BND       X0000963   0.000000000000e+00
 LO BND       X0000964   0.000000000000e+00
 LO BND       X0000965   0.000000000000e+00
 LO BND       X0000966   0.000000000000e+00
 LO BND       X0000967   0.000000000000e+00
 LO BND       X0000968   0.000000000000e+00
 LO BND       X0000969   0.000000000000e+00
 LO BND       X0000970   0.000000000000e+00
 LO BND       X0000971   0.000000000000e+00
 LO BND       X0000972   0.000000000000e+00
 LO BND       X0000973   0.000000000000e+00
 LO BND       X0000974   0.000000000000e+00
 LO BND       X0000975   0.000000000000e+00
 LO BND       X0000976   0.000000000000e+00
 LO BND       X0000977   0.000000000000e+00
 LO BND       X0000978   0.000000000000e+00
 LO BND       X0000979   0.000000000000e+00
 LO BND       X0000980   0.000000000000e+00
 LO BND       X0000981   0.000000000000e+00
 LO BND       X0000982   0.000000000000e+00
 LO BND       X0000983   0.000000000000e+00
 LO BND       X0000984   0.000000000000e+00
 LO BND       X0000985   0.000000000000e+00
 LO BND       X0000986   0.000000000000e+00
 LO BND       X0000987   0.000000000000e+00
 LO BND       X0000988   0.000000000000e+00
 LO BND       X0000989   0.000000000000e+00
 LO BND       X0000990   0.000000000000e+00
 LO BND       X0000991   0.000000000000e+00
 LO BND       X0000992   0.000000000000e+00
 LO BND       X0000993   0.000000000000e+00
 LO BND       X0000994   0.000000000000e+00
 LO BND       X0000995   0.000000000000e+00
 LO BND       X0000996   0.000000000000e+00
 LO BND       X0000997   0.000000000000e+00
 LO BND       X0000998   0.000000000000e+00
 LO BND       X0000999   0.000000000000e+00
 LO BND       X0001000   0.000000000000e+00
 LO BND       X0001001   0.000000000000e+00
 LO BND       X0001002   0.000000000000e+00
 LO BND       X0001003   0.000000000000e+00
 LO BND       X0001004   0.000000000000e+00
 LO BND       X0001005   0.000000000000e+00
 LO BND       X0001006   0.000000000000e+00
 LO BND       X0001007   0.000000000000e+00
 LO BND       X0001008   0.000000000000e+00
 LO BND       X0001009   0.000000000000e+00
 LO BND       X0001010   0.000000000000e+00
 LO BND       X0001011   0.000000000000e+00
 LO BND       X0001012   0.000000000000e+00
 LO BND       X0001013   0.000000000000e+00
 LO BND       X0001014   0.000000000000e+00
 LO BND       X0001015   0.000000000000e+00
 LO BND       X0001016   0.000000000000e+00
 LO BND       X0001017   0.000000000000e+00
 LO BND       X0001018   0.000000000000e+00
 LO BND       X0001019   0.000000000000e+00
 LO BND       X0001020   0.000000000000e+00
 LO BND       X0001021   0.000000000000e+00
 LO BND       X0001022   0.000000000000e+00
 LO BND       X0001023   0.000000000000e+00
 LO BND       X0001024   0.000000000000e+00
 LO BND       X0001025   0.000000000000e+00
 LO BND       X0001026   0.000000000000e+00
 LO BND       X0001027   0.000000000000e+00
 LO BND       X0001028   0.000000000000e+00
 LO BND       X0001029   0.000000000000e+00
 LO BND       X0001030   0.000000000000e+00
 LO BND       X0001031   0.000000000000e+00
 LO BND       X0001032   0.000000000000e+00
 LO BND       X0001033   0.000000000000e+00
 LO BND       X0001034   0.000000000000e+00
 LO BND       X0001035   0.000000000000e+00
 LO BND       X0001036   0.000000000000e+00
 LO BND       X0001037   0.000000000000e+00
 LO BND       X0001038   0.000000000000e+00
 LO BND       X0001039   0.000000000000e+00
 LO BND       X0001040   0.000000000000e+00
 LO BND       X0001041   0.000000000000e+00
 LO BND       X0001042   0.000000000000e+00
 LO BND       X0001043   0.000000000000e+00
 LO BND       X0001044   0.000000000000e+00
 LO BND       X0001045   0.000000000000e+00
 LO BND       X0001046   0.000000000000e+00
 LO BND       X0001047   0.000000000000e+00
 LO BND       X0001048   0.000000000000e+00
 LO BND       X0001049   0.000000000000e+00
 LO BND       X0001050   0.000000000000e+00
 LO BND       X0001051   0.000000000000e+00
 LO BND       X0001052   0.000000000000e+00
 LO BND       X0001053   0.000000000000e+00
 LO BND       X0001054   0.000000000000e+00
 LO BND       X0001055   0.000000000000e+00
 LO BND       X0001056   0.000000000000e+00
 LO BND       X0001057   0.000000000000e+00
 LO BND       X0001058   0.000000000000e+00
 LO BND       X0001059   0.000000000000e+00
 LO BND       X0001060   0.000000000000e+00
 LO BND       X0001061   0.000000000000e+00
 LO BND       X0001062   0.000000000000e+00
 LO BND       X0001063   0.000000000000e+00
 LO BND       X0001064   0.000000000000e+00
 LO BND       X0001065   0.000000000000e+00
 LO BND       X0001066   0.000000000000e+00
 LO BND       X0001067   0.000000000000e+00
 LO BND       X0001068   0.000000000000e+00
 LO BND       X0001069   0.000000000000e+00
 LO BND       X0001070   0.000000000000e+00
 LO BND       X0001071   0.000000000000e+00
 LO BND       X0001072   0.000000000000e+00
 LO BND       X0001073   0.000000000000e+00
 LO BND       X0001074   0.000000000000e+00
 LO BND       X0001075   0.000000000000e+00
 LO BND       X0001076   0.000000000000e+00
 LO BND       X0001077   0.000000000000e+00
 LO BND       X0001078   0.000000000000e+00
 LO BND       X0001079   0.000000000000e+00
 LO BND       X0001080   0.000000000000e+00
 LO BND       X0001081   0.000000000000e+00
 LO BND       X0001082   0.000000000000e+00
 LO BND       X0001083   0.000000000000e+00
 LO BND       X0001084   0.000000000000e+00
 LO BND       X0001085   0.000000000000e+00
 LO BND       X0001086   0.000000000000e+00
 LO BND       X0001087   0.000000000000e+00
 LO BND       X0001088   0.000000000000e+00
 LO BND       X0001089   0.000000000000e+00
 LO BND       X0001090   0.000000000000e+00
 LO BND       X0001091   0.000000000000e+00
 LO BND       X0001092   0.000000000000e+00
 LO BND       X0001093   0.000000000000e+00
 LO BND       X0001094   0.000000000000e+00
 LO BND       X0001095   0.000000000000e+00
 LO BND       X0001096   0.000000000000e+00
 LO BND       X0001097   0.000000000000e+00
 LO BND       X0001098   0.000000000000e+00
 LO BND       X0001099   0.000000000000e+00
 LO BND       X0001100   0.000000000000e+00
 LO BND       X0001101   0.000000000000e+00
 LO BND       X0001102   0.000000000000e+00
 LO BND       X0001103   0.000000000000e+00
 LO BND       X0001104   0.000000000000e+00
 LO BND       X0001105   0.000000000000e+00
 LO BND       X0001106   0.000000000000e+00
 LO BND       X0001107   0.000000000000e+00
 LO BND       X0001108   0.000000000000e+00
 LO BND       X0001109   0.000000000000e+00
 LO BND       X0001110   0.000000000000e+00
 LO BND       X0001111   0.000000000000e+00
 LO BND       X0001112   0.000000000000e+00
 LO BND       X0001113   0.000000000000e+00
 LO BND       X0001114   0.000000000000e+00
 LO BND       X0001115   0.000000000000e+00
 LO BND       X0001116   0.000000000000e+00
 LO BND       X0001117   0.000000000000e+00
 LO BND       X0001118   0.000000000000e+00
 LO BND       X0001119   0.000000000000e+00
 LO BND       X0001120   0.000000000000e+00
 LO BND       X0001121   0.000000000000e+00
 LO BND       X0001122   0.000000000000e+00
 LO BND       X0001123   0.000000000000e+00
 LO BND       X0001124   0.000000000000e+00
 LO BND       X0001125   0.000000000000e+00
 LO BND       X0001126   0.000000000000e+00
 LO BND       X0001127   0.000000000000e+00
 LO BND       X0001128   0.000000000000e+00
 LO BND       X0001129   0.000000000000e+00
 LO BND       X0001130   0.000000000000e+00
 LO BND       X0001131   0.000000000000e+00
 LO BND       X0001132   0.000000000000e+00
 LO BND       X0001133   0.000000000000e+00
 LO BND       X0001134   0.000000000000e+00
 LO BND       X0001135   0.000000000000e+00
 LO BND       X0001136   0.000000000000e+00
 LO BND       X0001137   0.000000000000e+00
 LO BND       X0001138   0.000000000000e+00
 LO BND       X0001139   0.000000000000e+00
 LO BND       X0001140   0.000000000000e+00
 LO BND       X0001141   0.000000000000e+00
 LO BND       X0001142   0.000000000000e+00
 LO BND       X0001143   0.000000000000e+00
 LO BND       X0001144   0.000000000000e+00
 LO BND       X0001145   0.000000000000e+00
 LO BND       X0001146   0.000000000000e+00
 LO BND       X0001147   0.000000000000e+00
 LO BND       X0001148   0.000000000000e+00
 LO BND       X0001149   0.000000000000e+00
 LO BND       X0001150   0.000000000000e+00
 LO BND       X0001151   0.000000000000e+00
 LO BND       X0001152   0.000000000000e+00
 LO BND       X0001153   0.000000000000e+00
 LO BND       X0001154   0.000000000000e+00
 LO BND       X0001155   0.000000000000e+00
 LO BND       X0001156   0.000000000000e+00
 LO BND       X0001157   0.000000000000e+00
 LO BND       X0001158   0.000000000000e+00
 LO BND       X0001159   0.000000000000e+00
 LO BND       X0001160   0.000000000000e+00
 LO BND       X0001161   0.000000000000e+00
 LO BND       X0001162   0.000000000000e+00
 LO BND       X0001163   0.000000000000e+00
 LO BND       X0001164   0.000000000000e+00
 LO BND       X0001165   0.000000000000e+00
 LO BND       X0001166   0.000000000000e+00
 LO BND       X0001167   0.000000000000e+00
 LO BND       X0001168   0.000000000000e+00
 LO BND       X0001169   0.000000000000e+00
 LO BND       X0001170   0.000000000000e+00
 LO BND       X0001171   0.000000000000e+00
 LO BND       X0001172   0.000000000000e+00
 LO BND       X0001173   0.000000000000e+00
 LO BND       X0001174   0.000000000000e+00
 LO BND       X0001175   0.000000000000e+00
 LO BND       X0001176   0.000000000000e+00
 LO BND       X0001177   0.000000000000e+00
 LO BND       X0001178   0.000000000000e+00
 LO BND       X0001179   0.000000000000e+00
 LO BND       X0001180   0.000000000000e+00
 LO BND       X0001181   0.000000000000e+00
 LO BND       X0001182   0.000000000000e+00
 LO BND       X0001183   0.000000000000e+00
 LO BND       X0001184   0.000000000000e+00
 LO BND       X0001185   0.000000000000e+00
 LO BND       X0001186   0.000000000000e+00
 LO BND       X0001187   0.000000000000e+00
 LO BND       X0001188   0.000000000000e+00
 LO BND       X0001189   0.000000000000e+00
 LO BND       X0001190   0.000000000000e+00
 LO BND       X0001191   0.000000000000e+00
 LO BND       X0001192   0.000000000000e+00
 LO BND       X0001193   0.000000000000e+00
 LO BND       X0001194   0.000000000000e+00
 LO BND       X0001195   0.000000000000e+00
 LO BND       X0001196   0.000000000000e+00
 LO BND       X0001197   0.000000000000e+00
 LO BND       X0001198   0.000000000000e+00
 LO BND       X0001199   0.000000000000e+00
 LO BND       X0001200   0.000000000000e+00
 LO BND       X0001201   0.000000000000e+00
 LO BND       X0001202   0.000000000000e+00
 LO BND       X0001203   0.000000000000e+00
 LO BND       X0001204   0.000000000000e+00
 LO BND       X0001205   0.000000000000e+00
 LO BND       X0001206   0.000000000000e+00
 LO BND       X0001207   0.000000000000e+00
 LO BND       X0001208   0.000000000000e+00
 LO BND       X0001209   0.000000000000e+00
 LO BND       X0001210   0.000000000000e+00
 LO BND       X0001211   0.000000000000e+00
 LO BND       X0001212   0.000000000000e+00
 LO BND       X0001213   0.000000000000e+00
 LO BND       X0001214   0.000000000000e+00
 LO BND       X0001215   0.000000000000e+00
 LO BND       X0001216   0.000000000000e+00
 LO BND       X0001217   0.000000000000e+00
 LO BND       X0001218   0.000000000000e+00
 LO BND       X0001219   0.000000000000e+00
 LO BND       X0001220   0.000000000000e+00
 LO BND       X0001221   0.000000000000e+00
 LO BND       X0001222   0.000000000000e+00
 LO BND       X0001223   0.000000000000e+00
 LO BND       X0001224   0.000000000000e+00
 LO BND       X0001225   0.000000000000e+00
 LO BND       X0001226   0.000000000000e+00
 LO BND       X0001227   0.000000000000e+00
 LO BND       X0001228   0.000000000000e+00
 LO BND       X0001229   0.000000000000e+00
 LO BND       X0001230   0.000000000000e+00
 LO BND       X0001231   0.000000000000e+00
 LO BND       X0001232   0.000000000000e+00
 LO BND       X0001233   0.000000000000e+00
 LO BND       X0001234   0.000000000000e+00
 LO BND       X0001235   0.000000000000e+00
 LO BND       X0001236   0.000000000000e+00
 LO BND       X0001237   0.000000000000e+00
 LO BND       X0001238   0.000000000000e+00
 LO BND       X0001239   0.000000000000e+00
 LO BND       X0001240   0.000000000000e+00
 LO BND       X0001241   0.000000000000e+00
 LO BND       X0001242   0.000000000000e+00
 LO BND       X0001243   0.000000000000e+00
 LO BND       X0001244   0.000000000000e+00
 LO BND       X0001245   0.000000000000e+00
 LO BND       X0001246   0.000000000000e+00
 LO BND       X0001247   0.000000000000e+00
 LO BND       X0001248   0.000000000000e+00
 LO BND       X0001249   0.000000000000e+00
 LO BND       X0001250   0.000000000000e+00
 LO BND       X0001251   0.000000000000e+00
 LO BND       X0001252   0.000000000000e+00
 LO BND       X0001253   0.000000000000e+00
 LO BND       X0001254   0.000000000000e+00
 LO BND       X0001255   0.000000000000e+00
 LO BND       X0001256   0.000000000000e+00
 LO BND       X0001257   0.000000000000e+00
 LO BND       X0001258   0.000000000000e+00
 LO BND       X0001259   0.000000000000e+00
 LO BND       X0001260   0.000000000000e+00
 LO BND       X0001261   0.000000000000e+00
 LO BND       X0001262   0.000000000000e+00
 LO BND       X0001263   0.000000000000e+00
 LO BND       X0001264   0.000000000000e+00
 LO BND       X0001265   0.000000000000e+00
 LO BND       X0001266   0.000000000000e+00
 LO BND       X0001267   0.000000000000e+00
 LO BND       X0001268   0.000000000000e+00
 LO BND       X0001269   0.000000000000e+00
 LO BND       X0001270   0.000000000000e+00
 LO BND       X0001271   0.000000000000e+00
 LO BND       X0001272   0.000000000000e+00
 LO BND       X0001273   0.000000000000e+00
 LO BND       X0001274   0.000000000000e+00
 LO BND       X0001275   0.000000000000e+00
 LO BND       X0001276   0.000000000000e+00
 LO BND       X0001277   0.000000000000e+00
 LO BND       X0001278   0.000000000000e+00
 LO BND       X0001279   0.000000000000e+00
 LO BND       X0001280   0.000000000000e+00
 LO BND       X0001281   0.000000000000e+00
 LO BND       X0001282   0.000000000000e+00
 LO BND       X0001283   0.000000000000e+00
 LO BND       X0001284   0.000000000000e+00
 LO BND       X0001285   0.000000000000e+00
 LO BND       X0001286   0.000000000000e+00
 LO BND       X0001287   0.000000000000e+00
 LO BND       X0001288   0.000000000000e+00
 LO BND       X0001289   0.000000000000e+00
 LO BND       X0001290   0.000000000000e+00
 LO BND       X0001291   0.000000000000e+00
 LO BND       X0001292   0.000000000000e+00
 LO BND       X0001293   0.000000000000e+00
 LO BND       X0001294   0.000000000000e+00
 LO BND       X0001295   0.000000000000e+00
 LO BND       X0001296   0.000000000000e+00
 LO BND       X0001297   0.000000000000e+00
 LO BND       X0001298   0.000000000000e+00
 LO BND       X0001299   0.000000000000e+00
 LO BND       X0001300   0.000000000000e+00
 LO BND       X0001301   0.000000000000e+00
 LO BND       X0001302   0.000000000000e+00
 LO BND       X0001303   0.000000000000e+00
 LO BND       X0001304   0.000000000000e+00
 LO BND       X0001305   0.000000000000e+00
 LO BND       X0001306   0.000000000000e+00
 LO BND       X0001307   0.000000000000e+00
 LO BND       X0001308   0.000000000000e+00
 LO BND       X0001309   0.000000000000e+00
 LO BND       X0001310   0.000000000000e+00
 LO BND       X0001311   0.000000000000e+00
 LO BND       X0001312   0.000000000000e+00
 LO BND       X0001313   0.000000000000e+00
 LO BND       X0001314   0.000000000000e+00
 LO BND       X0001315   0.000000000000e+00
 LO BND       X0001316   0.000000000000e+00
 LO BND       X0001317   0.000000000000e+00
 LO BND       X0001318   0.000000000000e+00
 LO BND       X0001319   0.000000000000e+00
 LO BND       X0001320   0.000000000000e+00
 LO BND       X0001321   0.000000000000e+00
 LO BND       X0001322   0.000000000000e+00
 LO BND       X0001323   0.000000000000e+00
 LO BND       X0001324   0.000000000000e+00
 LO BND       X0001325   0.000000000000e+00
 LO BND       X0001326   0.000000000000e+00
 LO BND       X0001327   0.000000000000e+00
 LO BND       X0001328   0.000000000000e+00
 LO BND       X0001329   0.000000000000e+00
 LO BND       X0001330   0.000000000000e+00
 LO BND       X0001331   0.000000000000e+00
 LO BND       X0001332   0.000000000000e+00
 LO BND       X0001333   0.000000000000e+00
 LO BND       X0001334   0.000000000000e+00
 LO BND       X0001335   0.000000000000e+00
 LO BND       X0001336   0.000000000000e+00
 LO BND       X0001337   0.000000000000e+00
 LO BND       X0001338   0.000000000000e+00
 LO BND       X0001339   0.000000000000e+00
 LO BND       X0001340   0.000000000000e+00
 LO BND       X0001341   0.000000000000e+00
 LO BND       X0001342   0.000000000000e+00
 LO BND       X0001343   0.000000000000e+00
 LO BND       X0001344   0.000000000000e+00
 LO BND       X0001345   0.000000000000e+00
 LO BND       X0001346   0.000000000000e+00
 LO BND       X0001347   0.000000000000e+00
 LO BND       X0001348   0.000000000000e+00
 LO BND       X0001349   0.000000000000e+00
 LO BND       X0001350   0.000000000000e+00
 LO BND       X0001351   0.000000000000e+00
 LO BND       X0001352   0.000000000000e+00
 LO BND       X0001353   0.000000000000e+00
 LO BND       X0001354   0.000000000000e+00
 LO BND       X0001355   0.000000000000e+00
 LO BND       X0001356   0.000000000000e+00
 LO BND       X0001357   0.000000000000e+00
 LO BND       X0001358   0.000000000000e+00
 LO BND       X0001359   0.000000000000e+00
 LO BND       X0001360   0.000000000000e+00
 LO BND       X0001361   0.000000000000e+00
 LO BND       X0001362   0.000000000000e+00
 LO BND       X0001363   0.000000000000e+00
 LO BND       X0001364   0.000000000000e+00
 LO BND       X0001365   0.000000000000e+00
 LO BND       X0001366   0.000000000000e+00
 LO BND       X0001367   0.000000000000e+00
 LO BND       X0001368   0.000000000000e+00
 LO BND       X0001369   0.000000000000e+00
 LO BND       X0001370   0.000000000000e+00
 LO BND       X0001371   0.000000000000e+00
 LO BND       X0001372   0.000000000000e+00
 LO BND       X0001373   0.000000000000e+00
 LO BND       X0001374   0.000000000000e+00
 LO BND       X0001375   0.000000000000e+00
 LO BND       X0001376   0.000000000000e+00
 LO BND       X0001377   0.000000000000e+00
 LO BND       X0001378   0.000000000000e+00
 LO BND       X0001379   0.000000000000e+00
 LO BND       X0001380   0.000000000000e+00
 LO BND       X0001381   0.000000000000e+00
 LO BND       X0001382   0.000000000000e+00
 LO BND       X0001383   0.000000000000e+00
 LO BND       X0001384   0.000000000000e+00
 LO BND       X0001385   0.000000000000e+00
 LO BND       X0001386   0.000000000000e+00
 LO BND       X0001387   0.000000000000e+00
 LO BND       X0001388   0.000000000000e+00
 LO BND       X0001389   0.000000000000e+00
 LO BND       X0001390   0.000000000000e+00
 LO BND       X0001391   0.000000000000e+00
 LO BND       X0001392   0.000000000000e+00
 LO BND       X0001393   0.000000000000e+00
 LO BND       X0001394   0.000000000000e+00
 LO BND       X0001395   0.000000000000e+00
 LO BND       X0001396   0.000000000000e+00
 LO BND       X0001397   0.000000000000e+00
 LO BND       X0001398   0.000000000000e+00
 LO BND       X0001399   0.000000000000e+00
 LO BND       X0001400   0.000000000000e+00
 LO BND       X0001401   0.000000000000e+00
 LO BND       X0001402   0.000000000000e+00
 LO BND       X0001403   0.000000000000e+00
 LO BND       X0001404   0.000000000000e+00
 LO BND       X0001405   0.000000000000e+00
 LO BND       X0001406   0.000000000000e+00
 LO BND       X0001407   0.000000000000e+00
 LO BND       X0001408   0.000000000000e+00
 LO BND       X0001409   0.000000000000e+00
 LO BND       X0001410   0.000000000000e+00
 LO BND       X0001411   0.000000000000e+00
 LO BND       X0001412   0.000000000000e+00
 LO BND       X0001413   0.000000000000e+00
 LO BND       X0001414   0.000000000000e+00
 LO BND       X0001415   0.000000000000e+00
 LO BND       X0001416   0.000000000000e+00
 LO BND       X0001417   0.000000000000e+00
 LO BND       X0001418   0.000000000000e+00
 LO BND       X0001419   0.000000000000e+00
 LO BND       X0001420   0.000000000000e+00
 LO BND       X0001421   0.000000000000e+00
 LO BND       X0001422   0.000000000000e+00
 LO BND       X0001423   0.000000000000e+00
 LO BND       X0001424   0.000000000000e+00
 LO BND       X0001425   0.000000000000e+00
 LO BND       X0001426   0.000000000000e+00
 LO BND       X0001427   0.000000000000e+00
 LO BND       X0001428   0.000000000000e+00
 LO BND       X0001429   0.000000000000e+00
 LO BND       X0001430   0.000000000000e+00
 LO BND       X0001431   0.000000000000e+00
 LO BND       X0001432   0.000000000000e+00
 LO BND       X0001433   0.000000000000e+00
 LO BND       X0001434   0.000000000000e+00
 LO BND       X0001435   0.000000000000e+00
 LO BND       X0001436   0.000000000000e+00
 LO BND       X0001437   0.000000000000e+00
 LO BND       X0001438   0.000000000000e+00
 LO BND       X0001439   0.000000000000e+00
 LO BND       X0001440   0.000000000000e+00
 LO BND       X0001441   0.000000000000e+00
 LO BND       X0001442   0.000000000000e+00
 LO BND       X0001443   0.000000000000e+00
 LO BND       X0001444   0.000000000000e+00
 LO BND       X0001445   0.000000000000e+00
 LO BND       X0001446   0.000000000000e+00
 LO BND       X0001447   0.000000000000e+00
 LO BND       X0001448   0.000000000000e+00
 LO BND       X0001449   0.000000000000e+00
 LO BND       X0001450   0.000000000000e+00
 LO BND       X0001451   0.000000000000e+00
 LO BND       X0001452   0.000000000000e+00
 LO BND       X0001453   0.000000000000e+00
 LO BND       X0001454   0.000000000000e+00
 LO BND       X0001455   0.000000000000e+00
 LO BND       X0001456   0.000000000000e+00
 LO BND       X0001457   0.000000000000e+00
 LO BND       X0001458   0.000000000000e+00
 LO BND       X0001459   0.000000000000e+00
 LO BND       X0001460   0.000000000000e+00
 LO BND       X0001461   0.000000000000e+00
 LO BND       X0001462   0.000000000000e+00
 LO BND       X0001463   0.000000000000e+00
 LO BND       X0001464   0.000000000000e+00
 LO BND       X0001465   0.000000000000e+00
 LO BND       X0001466   0.000000000000e+00
 LO BND       X0001467   0.000000000000e+00
 LO BND       X0001468   0.000000000000e+00
 LO BND       X0001469   0.000000000000e+00
 LO BND       X0001470   0.000000000000e+00
 LO BND       X0001471   0.000000000000e+00
 LO BND       X0001472   0.000000000000e+00
 LO BND       X0001473   0.000000000000e+00
 LO BND       X0001474   0.000000000000e+00
 LO BND       X0001475   0.000000000000e+00
 LO BND       X0001476   0.000000000000e+00
 LO BND       X0001477   0.000000000000e+00
 LO BND       X0001478   0.000000000000e+00
 LO BND       X0001479   0.000000000000e+00
 LO BND       X0001480   0.000000000000e+00
 LO BND       X0001481   0.000000000000e+00
 LO BND       X0001482   0.000000000000e+00
 LO BND       X0001483   0.000000000000e+00
 LO BND       X0001484   0.000000000000e+00
 LO BND       X0001485   0.000000000000e+00
 LO BND       X0001486   0.000000000000e+00
 LO BND       X0001487   0.000000000000e+00
 LO BND       X0001488   0.000000000000e+00
 LO BND       X0001489   0.000000000000e+00
 LO BND       X0001490   0.000000000000e+00
 LO BND       X0001491   0.000000000000e+00
 LO BND       X0001492   0.000000000000e+00
 LO BND       X0001493   0.000000000000e+00
 LO BND       X0001494   0.000000000000e+00
 LO BND       X0001495   0.000000000000e+00
 LO BND       X0001496   0.000000000000e+00
 LO BND       X0001497   0.000000000000e+00
 LO BND       X0001498   0.000000000000e+00
 LO BND       X0001499   0.000000000000e+00
 LO BND       X0001500   0.000000000000e+00
 LO BND       X0001501   0.000000000000e+00
 LO BND       X0001502   0.000000000000e+00
 LO BND       X0001503   0.000000000000e+00
 LO BND       X0001504   0.000000000000e+00
 LO BND       X0001505   0.000000000000e+00
 LO BND       X0001506   0.000000000000e+00
 LO BND       X0001507   0.000000000000e+00
 LO BND       X0001508   0.000000000000e+00
 LO BND       X0001509   0.000000000000e+00
 LO BND       X0001510   0.000000000000e+00
 LO BND       X0001511   0.000000000000e+00
 LO BND       X0001512   0.000000000000e+00
 LO BND       X0001513   0.000000000000e+00
 LO BND       X0001514   0.000000000000e+00
 LO BND       X0001515   0.000000000000e+00
 LO BND       X0001516   0.000000000000e+00
 LO BND       X0001517   0.000000000000e+00
 LO BND       X0001518   0.000000000000e+00
 LO BND       X0001519   0.000000000000e+00
 LO BND       X0001520   0.000000000000e+00
 LO BND       X0001521   0.000000000000e+00
 LO BND       X0001522   0.000000000000e+00
 LO BND       X0001523   0.000000000000e+00
 LO BND       X0001524   0.000000000000e+00
 LO BND       X0001525   0.000000000000e+00
 LO BND       X0001526   0.000000000000e+00
 LO BND       X0001527   0.000000000000e+00
 LO BND       X0001528   0.000000000000e+00
 LO BND       X0001529   0.000000000000e+00
 LO BND       X0001530   0.000000000000e+00
 LO BND       X0001531   0.000000000000e+00
 LO BND       X0001532   0.000000000000e+00
 LO BND       X0001533   0.000000000000e+00
 LO BND       X0001534   0.000000000000e+00
 LO BND       X0001535   0.000000000000e+00
 LO BND       X0001536   0.000000000000e+00
 LO BND       X0001537   0.000000000000e+00
 LO BND       X0001538   0.000000000000e+00
 LO BND       X0001539   0.000000000000e+00
 LO BND       X0001540   0.000000000000e+00
 LO BND       X0001541   0.000000000000e+00
 LO BND       X0001542   0.000000000000e+00
 LO BND       X0001543   0.000000000000e+00
 LO BND       X0001544   0.000000000000e+00
 LO BND       X0001545   0.000000000000e+00
 LO BND       X0001546   0.000000000000e+00
 LO BND       X0001547   0.000000000000e+00
 LO BND       X0001548   0.000000000000e+00
 LO BND       X0001549   0.000000000000e+00
 LO BND       X0001550   0.000000000000e+00
 LO BND       X0001551   0.000000000000e+00
 LO BND       X0001552   0.000000000000e+00
 LO BND       X0001553   0.000000000000e+00
 LO BND       X0001554   0.000000000000e+00
 LO BND       X0001555   0.000000000000e+00
 LO BND       X0001556   0.000000000000e+00
 LO BND       X0001557   0.000000000000e+00
 LO BND       X0001558   0.000000000000e+00
 LO BND       X0001559   0.000000000000e+00
 LO BND       X0001560   0.000000000000e+00
 LO BND       X0001561   0.000000000000e+00
 LO BND       X0001562   0.000000000000e+00
 LO BND       X0001563   0.000000000000e+00
 LO BND       X0001564   0.000000000000e+00
 LO BND       X0001565   0.000000000000e+00
 LO BND       X0001566   0.000000000000e+00
 LO BND       X0001567   0.000000000000e+00
 LO BND       X0001568   0.000000000000e+00
 LO BND       X0001569   0.000000000000e+00
 LO BND       X0001570   0.000000000000e+00
 LO BND       X0001571   0.000000000000e+00
 LO BND       X0001572   0.000000000000e+00
 LO BND       X0001573   0.000000000000e+00
 LO BND       X0001574   0.000000000000e+00
 LO BND       X0001575   0.000000000000e+00
 LO BND       X0001576   0.000000000000e+00
 LO BND       X0001577   0.000000000000e+00
 LO BND       X0001578   0.000000000000e+00
 LO BND       X0001579   0.000000000000e+00
 LO BND       X0001580   0.000000000000e+00
 LO BND       X0001581   0.000000000000e+00
 LO BND       X0001582   0.000000000000e+00
 LO BND       X0001583   0.000000000000e+00
 LO BND       X0001584   0.000000000000e+00
 LO BND       X0001585   0.000000000000e+00
 LO BND       X0001586   0.000000000000e+00
 LO BND       X0001587   0.000000000000e+00
 LO BND       X0001588   0.000000000000e+00
 LO BND       X0001589   0.000000000000e+00
 LO BND       X0001590   0.000000000000e+00
 LO BND       X0001591   0.000000000000e+00
 LO BND       X0001592   0.000000000000e+00
 LO BND       X0001593   0.000000000000e+00
 LO BND       X0001594   0.000000000000e+00
 LO BND       X0001595   0.000000000000e+00
 LO BND       X0001596   0.000000000000e+00
 LO BND       X0001597   0.000000000000e+00
 LO BND       X0001598   0.000000000000e+00
 LO BND       X0001599   0.000000000000e+00
 LO BND       X0001600   0.000000000000e+00
 LO BND       X0001601   0.000000000000e+00
 LO BND       X0001602   0.000000000000e+00
 LO BND       X0001603   0.000000000000e+00
 LO BND       X0001604   0.000000000000e+00
 LO BND       X0001605   0.000000000000e+00
 LO BND       X0001606   0.000000000000e+00
 LO BND       X0001607   0.000000000000e+00
 LO BND       X0001608   0.000000000000e+00
 LO BND       X0001609   0.000000000000e+00
 LO BND       X0001610   0.000000000000e+00
 LO BND       X0001611   0.000000000000e+00
 LO BND       X0001612   0.000000000000e+00
 LO BND       X0001613   0.000000000000e+00
 LO BND       X0001614   0.000000000000e+00
 LO BND       X0001615   0.000000000000e+00
 LO BND       X0001616   0.000000000000e+00
 LO BND       X0001617   0.000000000000e+00
 LO BND       X0001618   0.000000000000e+00
 LO BND       X0001619   0.000000000000e+00
 LO BND       X0001620   0.000000000000e+00
 LO BND       X0001621   0.000000000000e+00
 LO BND       X0001622   0.000000000000e+00
 LO BND       X0001623   0.000000000000e+00
 LO BND       X0001624   0.000000000000e+00
 LO BND       X0001625   0.000000000000e+00
 BV BND       X0001686
 BV BND       X0001687
 BV BND       X0001688
 BV BND       X0001689
 BV BND       X0001690
 BV BND       X0001691
 BV BND       X0001692
 BV BND       X0001693
 BV BND       X0001694
 BV BND       X0001695
 BV BND       X0001696
 BV BND       X0001697
 BV BND       X0001698
 BV BND       X0001699
 BV BND       X0001700
 BV BND       X0001701
 BV BND       X0001702
 BV BND       X0001703
 BV BND       X0001704
 BV BND       X0001705
 BV BND       X0001706
 BV BND       X0001707
 BV BND       X0001708
 BV BND       X0001709
 BV BND       X0001710
 BV BND       X0001711
 BV BND       X0001712
 BV BND       X0001713
 BV BND       X0001714
 BV BND       X0001715
 BV BND       X0001716
 BV BND       X0001717
 BV BND       X0001718
 BV BND       X0001719
 BV BND       X0001720
 BV BND       X0001721
 BV BND       X0001722
 BV BND       X0001723
 BV BND       X0001724
 BV BND       X0001725
 BV BND       X0001726
 BV BND       X0001727
 BV BND       X0001728
 BV BND       X0001729
 BV BND       X0001730
 BV BND       X0001731
 BV BND       X0001732
 BV BND       X0001733
 BV BND       X0001734
 BV BND       X0001735
 BV BND       X0001736
 BV BND       X0001737
 BV BND       X0001738
 BV BND       X0001739
 BV BND       X0001740
 BV BND       X0001741
 BV BND       X0001742
 BV BND       X0001743
 BV BND       X0001744
 BV BND       X0001745
 BV BND       X0001746
 BV BND       X0001747
 BV BND       X0001748
 BV BND       X0001749
 BV BND       X0001750
 BV BND       X0001751
 BV BND       X0001752
 BV BND       X0001753
 BV BND       X0001754
 BV BND       X0001755
 BV BND       X0001756
 BV BND       X0001757
 BV BND       X0001758
 BV BND       X0001759
 BV BND       X0001760
 BV BND       X0001761
 BV BND       X0001762
 BV BND       X0001763
 BV BND       X0001764
 BV BND       X0001765
 BV BND       X0001766
 BV BND       X0001767
 BV BND       X0001768
 BV BND       X0001769
 BV BND       X0001770
 BV BND       X0001771
 BV BND       X0001772
 BV BND       X0001773
 BV BND       X0001774
 BV BND       X0001775
 BV BND       X0001776
 BV BND       X0001777
 BV BND       X0001778
 BV BND       X0001779
 BV BND       X0001780
 BV BND       X0001781
 BV BND       X0001782
 BV BND       X0001783
 BV BND       X0001784
 BV BND       X0001785
 BV BND       X0001786
 BV BND       X0001787
 BV BND       X0001788
 BV BND       X0001789
 BV BND       X0001790
 BV BND       X0001791
 BV BND       X0001792
 BV BND       X0001793
 BV BND       X0001794
 BV BND       X0001795
 BV BND       X0001796
 BV BND       X0001797
 BV BND       X0001798
 BV BND       X0001799
 BV BND       X0001800
 BV BND       X0001801
 BV BND       X0001802
 BV BND       X0001803
 BV BND       X0001804
 BV BND       X0001805
 BV BND       X0001806
 BV BND       X0001807
 BV BND       X0001808
 BV BND       X0001809
 BV BND       X0001810
 BV BND       X0001811
 BV BND       X0001812
 BV BND       X0001813
 BV BND       X0001814
 BV BND       X0001815
 BV BND       X0001816
 BV BND       X0001817
 BV BND       X0001818
 BV BND       X0001819
 BV BND       X0001820
 BV BND       X0001821
 BV BND       X0001822
 BV BND       X0001823
 BV BND       X0001824
 BV BND       X0001825
 BV BND       X0001826
 BV BND       X0001827
 BV BND       X0001828
 BV BND       X0001829
 BV BND       X0001830
 BV BND       X0001831
 BV BND       X0001832
 BV BND       X0001833
 BV BND       X0001834
 BV BND       X0001835
 BV BND       X0001836
 BV BND       X0001837
 BV BND       X0001838
 BV BND       X0001839
 BV BND       X0001840
 BV BND       X0001841
 BV BND       X0001842
 BV BND       X0001843
 BV BND       X0001844
 BV BND       X0001845
 BV BND       X0001846
 BV BND       X0001847
 BV BND       X0001848
 BV BND       X0001849
 BV BND       X0001850
 BV BND       X0001851
 BV BND       X0001852
 BV BND       X0001853
 BV BND       X0001854
 BV BND       X0001855
 BV BND       X0001856
 BV BND       X0001857
 BV BND       X0001858
 BV BND       X0001859
 BV BND       X0001860
 BV BND       X0001861
 BV BND       X0001862
 BV BND       X0001863
 BV BND       X0001864
 BV BND       X0001865
 BV BND       X0001866
 BV BND       X0001867
 BV BND       X0001868
 BV BND       X0001869
 BV BND       X0001870
 BV BND       X0001871
 BV BND       X0001872
 BV BND       X0001873
 BV BND       X0001874
 BV BND       X0001875
 BV BND       X0001876
 BV BND       X0001877
 BV BND       X0001878
 BV BND       X0001879
 BV BND       X0001880
 BV BND       X0001881
 BV BND       X0001882
 BV BND       X0001883
 BV BND       X0001884
 BV BND       X0001885
 BV BND       X0001886
 BV BND       X0001887
 BV BND       X0001888
 BV BND       X0001889
 BV BND       X0001890
 BV BND       X0001891
 BV BND       X0001892
 BV BND       X0001893
 BV BND       X0001894
 BV BND       X0001895
 BV BND       X0001896
 BV BND       X0001897
 BV BND       X0001898
 BV BND       X0001899
 BV BND       X0001900
 BV BND       X0001901
 BV BND       X0001902
 BV BND       X0001903
 BV BND       X0001904
 BV BND       X0001905
 BV BND       X0001906
 BV BND       X0001907
 BV BND       X0001908
 BV BND       X0001909
 BV BND       X0001910
 BV BND       X0001911
 BV BND       X0001912
 BV BND       X0001913
 BV BND       X0001914
 BV BND       X0001915
 BV BND       X0001916
 BV BND       X0001917
 BV BND       X0001918
 BV BND       X0001919
 BV BND       X0001920
 BV BND       X0001921
 BV BND       X0001922
 BV BND       X0001923
 BV BND       X0001924
 BV BND       X0001925
 BV BND       X0001926
 BV BND       X0001927
 BV BND       X0001928
 BV BND       X0001929
 BV BND       X0001930
 BV BND       X0001931
 BV BND       X0001932
 BV BND       X0001933
 BV BND       X0001934
 BV BND       X0001935
 BV BND       X0001936
 BV BND       X0001937
 BV BND       X0001938
 BV BND       X0001939
 BV BND       X0001940
 BV BND       X0001941
 BV BND       X0001942
 BV BND       X0001943
 BV BND       X0001944
 BV BND       X0001945
 BV BND       X0001946
 BV BND       X0001947
 BV BND       X0001948
 BV BND       X0001949
 BV BND       X0001950
 BV BND       X0001951
 BV BND       X0001952
 BV BND       X0001953
 BV BND       X0001954
 BV BND       X0001955
 BV BND       X0001956
 BV BND       X0001957
 BV BND       X0001958
 BV BND       X0001959
 BV BND       X0001960
 BV BND       X0001961
 BV BND       X0001962
 BV BND       X0001963
 BV BND       X0001964
 BV BND       X0001965
 BV BND       X0001966
 BV BND       X0001967
 BV BND       X0001968
 BV BND       X0001969
 BV BND       X0001970
 BV BND       X0001971
 BV BND       X0001972
 BV BND       X0001973
 BV BND       X0001974
 BV BND       X0001975
 BV BND       X0001976
 BV BND       X0001977
 BV BND       X0001978
 BV BND       X0001979
 BV BND       X0001980
 BV BND       X0001981
 BV BND       X0001982
 BV BND       X0001983
 BV BND       X0001984
 BV BND       X0001985
 BV BND       X0001986
 BV BND       X0001987
 BV BND       X0001988
 BV BND       X0001989
 BV BND       X0001990
 BV BND       X0001991
 BV BND       X0001992
 BV BND       X0001993
 BV BND       X0001994
 BV BND       X0001995
 BV BND       X0001996
 BV BND       X0001997
 BV BND       X0001998
 BV BND       X0001999
 BV BND       X0002000
 BV BND       X0002001
 BV BND       X0002002
 BV BND       X0002003
 BV BND       X0002004
 BV BND       X0002005
 BV BND       X0002006
 BV BND       X0002007
 BV BND       X0002008
 BV BND       X0002009
 BV BND       X0002010
 BV BND       X0002011
 BV BND       X0002012
 BV BND       X0002013
 BV BND       X0002014
 BV BND       X0002015
 BV BND       X0002016
 BV BND       X0002017
 BV BND       X0002018
 BV BND       X0002019
 BV BND       X0002020
 BV BND       X0002021
 BV BND       X0002022
 BV BND       X0002023
 BV BND       X0002024
 BV BND       X0002025
 BV BND       X0002026
 BV BND       X0002027
 BV BND       X0002028
 BV BND       X0002029
 BV BND       X0002030
 BV BND       X0002031
 BV BND       X0002032
 BV BND       X0002033
 BV BND       X0002034
 BV BND       X0002035
 BV BND       X0002036
 BV BND       X0002037
 BV BND       X0002038
 BV BND       X0002039
 BV BND       X0002040
 BV BND       X0002041
 BV BND       X0002042
 BV BND       X0002043
 BV BND       X0002044
 BV BND       X0002045
ENDATA
